../1-ideal/perfect-sqs-32/POSCAR
   1.00000000000000
     7.1987091307705624   -0.1930823139040950    0.0106606580807700
     0.0222238135478000    6.8105021631700398    0.1855921506934190
    -0.0210082439905890   -0.1284680485994950    6.9930660561489919
   Fe   Fe
    16    16
Direct
  0.9678139861341606  0.9939896665185444  0.0176956402630424
  0.5165675767395825  0.9724854203071445  0.0277814298583507
  0.5184049383619751  0.0005592720313032  0.4828470858232237
  0.5194911723628834  0.4856821787156207  0.9667243216850423
  0.2783944851886062  0.7609270612315200  0.5203804133173264
  0.7427434067977927  0.2433310248090450  0.5234777364202898
  0.7524988878512318  0.7473551543885222  0.0191598186518860
  0.7674232161951124  0.7659100843605984  0.4983545361452855
  0.9718095514741236  0.7494263349797734  0.7375716039409994
  0.4756058680196205  0.2788122381067666  0.7658884914598971
  0.5006928528102392  0.7298922943725827  0.2343728636530145
  0.4825890169064522  0.7358200561330932  0.7289492121145358
  0.2259301381106980  0.5140177681091913  0.2506953051054168
  0.7783934820321150  0.0063274970205498  0.2444790984827279
  0.7308972802331724  0.5000023229869299  0.2722467272104083
  0.7405454851925981  0.4825508797325568  0.7785603496506326
  0.0258676163996014  0.0029511590607427  0.4764266743597361
  0.0035411403472523  0.4739608589226592  0.9711169738087904
  0.0269253072641646  0.5218088860734014  0.4960738176515918
  0.4700094662567054  0.4841470578842717  0.5105657303331839
  0.2598078993795028  0.2776518042856750  0.0015841259487175
  0.2554635565797057  0.2540953368351850  0.5302523620426101
  0.2272928989152092  0.7800966445689923  0.9762288491127080
  0.7515228337887834  0.2398263772217391  0.0156820683705874
  0.0225016074727762  0.2742897619652567  0.2431353792290949
  0.0267763562288650  0.2405585866469835  0.7683927385107623
  0.9916314883878883  0.7214461929407960  0.2762365535332378
  0.5072481176477268  0.2308849686724983  0.2471204357952104
  0.2510092927623049  0.0270211460857439  0.2331391422901063
  0.2709408833909350  0.9970562198327002  0.7441617833955689
  0.2255840190726772  0.5292063148688442  0.7807351215212108
  0.7437747159693444  0.9840841145326635  0.7612333273554626

  0.00000000E+00  0.00000000E+00  0.00000000E+00
  0.00000000E+00  0.00000000E+00  0.00000000E+00
  0.00000000E+00  0.00000000E+00  0.00000000E+00
  0.00000000E+00  0.00000000E+00  0.00000000E+00
  0.00000000E+00  0.00000000E+00  0.00000000E+00
  0.00000000E+00  0.00000000E+00  0.00000000E+00
  0.00000000E+00  0.00000000E+00  0.00000000E+00
  0.00000000E+00  0.00000000E+00  0.00000000E+00
  0.00000000E+00  0.00000000E+00  0.00000000E+00
  0.00000000E+00  0.00000000E+00  0.00000000E+00
  0.00000000E+00  0.00000000E+00  0.00000000E+00
  0.00000000E+00  0.00000000E+00  0.00000000E+00
  0.00000000E+00  0.00000000E+00  0.00000000E+00
  0.00000000E+00  0.00000000E+00  0.00000000E+00
  0.00000000E+00  0.00000000E+00  0.00000000E+00
  0.00000000E+00  0.00000000E+00  0.00000000E+00
  0.00000000E+00  0.00000000E+00  0.00000000E+00
  0.00000000E+00  0.00000000E+00  0.00000000E+00
  0.00000000E+00  0.00000000E+00  0.00000000E+00
  0.00000000E+00  0.00000000E+00  0.00000000E+00
  0.00000000E+00  0.00000000E+00  0.00000000E+00
  0.00000000E+00  0.00000000E+00  0.00000000E+00
  0.00000000E+00  0.00000000E+00  0.00000000E+00
  0.00000000E+00  0.00000000E+00  0.00000000E+00
  0.00000000E+00  0.00000000E+00  0.00000000E+00
  0.00000000E+00  0.00000000E+00  0.00000000E+00
  0.00000000E+00  0.00000000E+00  0.00000000E+00
  0.00000000E+00  0.00000000E+00  0.00000000E+00
  0.00000000E+00  0.00000000E+00  0.00000000E+00
  0.00000000E+00  0.00000000E+00  0.00000000E+00
  0.00000000E+00  0.00000000E+00  0.00000000E+00
  0.00000000E+00  0.00000000E+00  0.00000000E+00
