../1-ideal/perfect-sqs-32/POSCAR
1.0
7.105638 -0.010945 0.007166
-0.002846 6.993895 -0.023057
0.044286 0.015743 6.908369
Fe
32
direct
0.000409 0.995859 0.998210 Fe
0.494337 0.004658 0.001408 Fe
0.497654 0.996356 0.498650 Fe
0.498098 0.499924 0.001038 Fe
0.252389 0.755008 0.503494 Fe
0.753929 0.256734 0.497530 Fe
0.749300 0.745258 0.994449 Fe
0.749250 0.750478 0.501614 Fe
0.999455 0.752926 0.745238 Fe
0.502633 0.251897 0.748929 Fe
0.498560 0.753919 0.253846 Fe
0.496410 0.753187 0.745074 Fe
0.251574 0.503967 0.253743 Fe
0.749175 0.996100 0.247943 Fe
0.746964 0.501141 0.255813 Fe
0.752358 0.494411 0.753044 Fe
0.994376 0.001571 0.503223 Fe
0.002832 0.497695 0.998862 Fe
0.002349 0.503891 0.495131 Fe
0.495566 0.494388 0.496104 Fe
0.252431 0.245309 0.005279 Fe
0.249831 0.245026 0.496136 Fe
0.255019 0.757050 0.001601 Fe
0.750707 0.248241 0.006589 Fe
0.994527 0.256488 0.250193 Fe
0.001356 0.252647 0.751161 Fe
0.997836 0.744333 0.255332 Fe
0.500788 0.253798 0.250508 Fe
0.256551 0.000520 0.249369 Fe
0.254127 0.002374 0.756466 Fe
0.255605 0.497984 0.755547 Fe
0.751994 0.999453 0.749015 Fe
