../1-ideal/perfect-sqs-32/POSCAR
1.0
6.899276 -0.133633 -0.114082
-0.089531 6.857745 0.040726
0.160534 -0.245490 7.120612
Fe
32
direct
0.027180 0.991801 0.030814 Fe
0.465831 0.974986 0.977191 Fe
0.498203 0.987048 0.468228 Fe
0.506251 0.498498 0.980018 Fe
0.283968 0.733234 0.504755 Fe
0.750858 0.228266 0.511838 Fe
0.784978 0.757614 0.977766 Fe
0.750852 0.774347 0.490509 Fe
0.968612 0.770312 0.739910 Fe
0.528503 0.216765 0.760448 Fe
0.500287 0.735627 0.223073 Fe
0.517548 0.747296 0.763614 Fe
0.255672 0.534442 0.277312 Fe
0.760680 0.021497 0.255184 Fe
0.725801 0.523687 0.267520 Fe
0.743580 0.473019 0.781636 Fe
0.993338 0.032416 0.485072 Fe
0.971254 0.469538 0.008939 Fe
0.021229 0.477756 0.521247 Fe
0.525362 0.499319 0.510611 Fe
0.252922 0.242045 0.973583 Fe
0.239385 0.255710 0.468974 Fe
0.254009 0.763169 0.990679 Fe
0.785733 0.254678 0.015506 Fe
0.030196 0.258553 0.258115 Fe
0.994676 0.223639 0.741987 Fe
0.000702 0.758616 0.238746 Fe
0.497122 0.241475 0.236624 Fe
0.236429 0.015198 0.266378 Fe
0.272015 0.002950 0.723540 Fe
0.282953 0.483503 0.721014 Fe
0.744414 0.005595 0.767827 Fe
