../1-ideal/perfect-sqs-32/POSCAR
   1.00000000000000
     7.1747153591532156   -0.0905827305253130    0.1104926925426390
     0.0292381874976240    6.9220509449147833    0.0573213998195290
     0.0224640901194830   -0.0803228239554810    6.9227271831908599
   Fe   Fe
    16    16
Direct
  0.9869403288905545  0.0075222429512252  0.0071439078620230
  0.4980144937537858  0.0089941889159917  0.9863184213823928
  0.4998849904095906  0.0108591413323111  0.5102808689055749
  0.4939269562732704  0.5028709889292458  0.0031688275820088
  0.2536935472017987  0.7407351418782255  0.5011464699526087
  0.7628812673117977  0.2503319524108321  0.4962835078339367
  0.7449166918469601  0.7457375168075302  0.0106426660882732
  0.7492892986529327  0.7573506298180916  0.5109515825963697
  0.9852193945153118  0.7554172518491811  0.7339147860655189
  0.5120778933993648  0.2501553712629629  0.7503204603582248
  0.4963042404839797  0.7475988435372045  0.2581058312103437
  0.4838596859034823  0.7397768960443614  0.7366540936657131
  0.2436943162764962  0.5140635509737450  0.2390037095898023
  0.7549108800923321  0.0015295318249144  0.2541502999554766
  0.7383904114898172  0.5047338717806937  0.2570787625721351
  0.7517308900986848  0.4893164880312213  0.7593621371918218
  0.0093198960376100  0.0069406100319327  0.4869266700227328
  0.0049379156727483  0.4980705422939167  0.0043523298760775
  0.9897787786185290  0.4893056590271954  0.5033270608175258
  0.5086052664335057  0.5074461963097292  0.4964253115988484
  0.2600066951116489  0.2579903562016170  0.0097774862942757
  0.2546527673005201  0.2504112992609393  0.5083829885248008
  0.2459297604993296  0.7620984924892227  0.0036517578162432
  0.7578223460517393  0.2534403361904580  0.0028695665701903
  0.0111162806389444  0.2649124486657826  0.2564719415028023
  0.9865133188560904  0.2473811421522569  0.7384787070572330
  0.9894716918283066  0.7346928127746821  0.2564206990232449
  0.4923881748218975  0.2630173993034930  0.2521524358755372
  0.2562235337225474  0.9984864195083105  0.2602492072019800
  0.2624666810623211  0.9893715382910528  0.7501466225981943
  0.2471108107147870  0.4919381808056542  0.7407532714482556
  0.7559065267564193  0.9981589933347053  0.7440676282420071

  0.00000000E+00  0.00000000E+00  0.00000000E+00
  0.00000000E+00  0.00000000E+00  0.00000000E+00
  0.00000000E+00  0.00000000E+00  0.00000000E+00
  0.00000000E+00  0.00000000E+00  0.00000000E+00
  0.00000000E+00  0.00000000E+00  0.00000000E+00
  0.00000000E+00  0.00000000E+00  0.00000000E+00
  0.00000000E+00  0.00000000E+00  0.00000000E+00
  0.00000000E+00  0.00000000E+00  0.00000000E+00
  0.00000000E+00  0.00000000E+00  0.00000000E+00
  0.00000000E+00  0.00000000E+00  0.00000000E+00
  0.00000000E+00  0.00000000E+00  0.00000000E+00
  0.00000000E+00  0.00000000E+00  0.00000000E+00
  0.00000000E+00  0.00000000E+00  0.00000000E+00
  0.00000000E+00  0.00000000E+00  0.00000000E+00
  0.00000000E+00  0.00000000E+00  0.00000000E+00
  0.00000000E+00  0.00000000E+00  0.00000000E+00
  0.00000000E+00  0.00000000E+00  0.00000000E+00
  0.00000000E+00  0.00000000E+00  0.00000000E+00
  0.00000000E+00  0.00000000E+00  0.00000000E+00
  0.00000000E+00  0.00000000E+00  0.00000000E+00
  0.00000000E+00  0.00000000E+00  0.00000000E+00
  0.00000000E+00  0.00000000E+00  0.00000000E+00
  0.00000000E+00  0.00000000E+00  0.00000000E+00
  0.00000000E+00  0.00000000E+00  0.00000000E+00
  0.00000000E+00  0.00000000E+00  0.00000000E+00
  0.00000000E+00  0.00000000E+00  0.00000000E+00
  0.00000000E+00  0.00000000E+00  0.00000000E+00
  0.00000000E+00  0.00000000E+00  0.00000000E+00
  0.00000000E+00  0.00000000E+00  0.00000000E+00
  0.00000000E+00  0.00000000E+00  0.00000000E+00
  0.00000000E+00  0.00000000E+00  0.00000000E+00
  0.00000000E+00  0.00000000E+00  0.00000000E+00
