../1-ideal/perfect-sqs-32/POSCAR
   1.00000000000000
     7.1241146665488992   -0.0123117799449600    0.0221848915127910
    -0.0223721956406880    7.0174584136464899   -0.0244041822475100
     0.0301813455782740   -0.0348629023551470    6.9381970451102584
   Fe   Fe
    16    16
Direct
  0.9949877675561538  0.9995858207101520  0.9977408000359773
  0.5012821188734620  0.0059856910972655  0.9971088261757473
  0.4956891086805371  0.0003660688025207  0.4966589625066433
  0.4970995069956956  0.4967581739857891  0.0014594283953144
  0.2520478944492694  0.7509848306719888  0.5026853472494892
  0.7488609385099636  0.2538793081392825  0.4970989438740574
  0.7561287979398017  0.7453842414911165  0.9960340989387433
  0.7510277691624836  0.7453108587109938  0.5033219393467974
  0.9960236641737694  0.7494884177951917  0.7446939793988037
  0.5033979921167244  0.2446164188340560  0.7508403968780328
  0.4968299451923599  0.7546008749928461  0.2485703106709494
  0.4968478536431320  0.7532340923472560  0.7478578279378709
  0.2522065326863512  0.4986191730451992  0.2522452704567968
  0.7504543083825013  0.0029790456517134  0.2527885013875419
  0.7525987985590135  0.4958668370743666  0.2520517498981860
  0.7484981705481815  0.5031775001224688  0.7449394461638335
  0.0013695264351696  0.9950863867981212  0.5000072943124820
  0.9944777341362965  0.5002255007238219  0.0011063379166316
  0.9977970734765123  0.4993381476397118  0.4982751053477088
  0.4988795336362628  0.5016935676280312  0.5013785442886771
  0.2533895632936805  0.2502069854249527  0.0045854469211051
  0.2557298071052543  0.2514284455202116  0.5028368579860114
  0.2508321152626749  0.7557861880064323  0.9970761611508649
  0.7533839698950970  0.2531847188244711  0.0015805273898835
  0.9989972887512550  0.2497635225843879  0.2509424356997627
  0.9975697778319557  0.2501977844549828  0.7488627731060404
  0.0017665573227248  0.7492571139134796  0.2520255493019761
  0.5005298932900075  0.2478037071123609  0.2439312430173359
  0.2534742349901080  0.0029339622322411  0.2457332627354063
  0.2522889027776145  0.0014783810070469  0.7523337375124655
  0.2518090478792203  0.4984949408920158  0.7492178846780533
  0.7522882545840446  0.0043070241865237  0.7495099618238257

  0.00000000E+00  0.00000000E+00  0.00000000E+00
  0.00000000E+00  0.00000000E+00  0.00000000E+00
  0.00000000E+00  0.00000000E+00  0.00000000E+00
  0.00000000E+00  0.00000000E+00  0.00000000E+00
  0.00000000E+00  0.00000000E+00  0.00000000E+00
  0.00000000E+00  0.00000000E+00  0.00000000E+00
  0.00000000E+00  0.00000000E+00  0.00000000E+00
  0.00000000E+00  0.00000000E+00  0.00000000E+00
  0.00000000E+00  0.00000000E+00  0.00000000E+00
  0.00000000E+00  0.00000000E+00  0.00000000E+00
  0.00000000E+00  0.00000000E+00  0.00000000E+00
  0.00000000E+00  0.00000000E+00  0.00000000E+00
  0.00000000E+00  0.00000000E+00  0.00000000E+00
  0.00000000E+00  0.00000000E+00  0.00000000E+00
  0.00000000E+00  0.00000000E+00  0.00000000E+00
  0.00000000E+00  0.00000000E+00  0.00000000E+00
  0.00000000E+00  0.00000000E+00  0.00000000E+00
  0.00000000E+00  0.00000000E+00  0.00000000E+00
  0.00000000E+00  0.00000000E+00  0.00000000E+00
  0.00000000E+00  0.00000000E+00  0.00000000E+00
  0.00000000E+00  0.00000000E+00  0.00000000E+00
  0.00000000E+00  0.00000000E+00  0.00000000E+00
  0.00000000E+00  0.00000000E+00  0.00000000E+00
  0.00000000E+00  0.00000000E+00  0.00000000E+00
  0.00000000E+00  0.00000000E+00  0.00000000E+00
  0.00000000E+00  0.00000000E+00  0.00000000E+00
  0.00000000E+00  0.00000000E+00  0.00000000E+00
  0.00000000E+00  0.00000000E+00  0.00000000E+00
  0.00000000E+00  0.00000000E+00  0.00000000E+00
  0.00000000E+00  0.00000000E+00  0.00000000E+00
  0.00000000E+00  0.00000000E+00  0.00000000E+00
  0.00000000E+00  0.00000000E+00  0.00000000E+00
