../1-ideal/perfect-sqs-32/POSCAR
   1.00000000000000
     7.3450466027443282   -0.4104868260627660    0.3459076877675890
    -0.0268005533958680    6.8643961752998770   -0.1178835832538910
    -0.3896280091255190   -0.3347190257507260    6.9593222691498768
   Fe   Fe
    16    16
Direct
  0.9519606568836991  0.0450325035058086  0.9665460653171039
  0.5501675164005206  0.9452479421140012  0.9385747969980685
  0.5192128317204876  0.0128728339261386  0.5602872317031427
  0.5212510053229309  0.4808488947894318  0.9370648725125861
  0.2836408523001666  0.7498035548971771  0.4487304385971456
  0.7517775612978710  0.2041778006278392  0.4957848808515593
  0.6998973482997002  0.7328251119481735  0.9555183540084542
  0.7905902320131588  0.7599744286319634  0.4840848110272375
  0.9655037789223186  0.7875141164685999  0.7247908663017810
  0.4571073350167865  0.2233982538831540  0.7636025408585141
  0.4468421550044042  0.7269085422766537  0.2977574564216852
  0.5122829411179097  0.7831365000731267  0.7655002337152439
  0.2454114242229508  0.5276712167718216  0.2959600590793059
  0.7701000022108317  0.0121059584057548  0.2062379109472658
  0.7125500847908555  0.5124547015583545  0.2812864145676599
  0.7218365626807071  0.4877066193511794  0.7789450745903750
  0.0030552547174167  0.0548819171358303  0.5211676960675788
  0.0003398533955092  0.4473355707213500  0.9919612228694206
  0.9398880045672726  0.4975990244034207  0.5329972903869162
  0.4834538202695242  0.5552692725904862  0.4588379612630433
  0.3076081678734184  0.1953801571064773  0.0529740827334919
  0.2427698881036306  0.2488812241210425  0.4549815068335619
  0.2287042684953846  0.6923617376014732  0.9383208946858090
  0.7954551609356741  0.2265125301123874  0.0392175036220408
  0.0030402786761172  0.2321544006474241  0.2501012390580328
  0.9564054256946832  0.2272792071038552  0.7403469219306515
  0.9465429212873886  0.7231098447517184  0.2265635615298365
  0.5001866791345293  0.2742131228188427  0.2604379470219698
  0.2763226718720588  0.0035413160501392  0.2413626004096585
  0.2176402299985298  0.9675267930767717  0.7461035056857241
  0.2983174849339960  0.4963869241358410  0.7889364459866641
  0.7617713073537402  0.9418506116030443  0.7286795045139982

  0.00000000E+00  0.00000000E+00  0.00000000E+00
  0.00000000E+00  0.00000000E+00  0.00000000E+00
  0.00000000E+00  0.00000000E+00  0.00000000E+00
  0.00000000E+00  0.00000000E+00  0.00000000E+00
  0.00000000E+00  0.00000000E+00  0.00000000E+00
  0.00000000E+00  0.00000000E+00  0.00000000E+00
  0.00000000E+00  0.00000000E+00  0.00000000E+00
  0.00000000E+00  0.00000000E+00  0.00000000E+00
  0.00000000E+00  0.00000000E+00  0.00000000E+00
  0.00000000E+00  0.00000000E+00  0.00000000E+00
  0.00000000E+00  0.00000000E+00  0.00000000E+00
  0.00000000E+00  0.00000000E+00  0.00000000E+00
  0.00000000E+00  0.00000000E+00  0.00000000E+00
  0.00000000E+00  0.00000000E+00  0.00000000E+00
  0.00000000E+00  0.00000000E+00  0.00000000E+00
  0.00000000E+00  0.00000000E+00  0.00000000E+00
  0.00000000E+00  0.00000000E+00  0.00000000E+00
  0.00000000E+00  0.00000000E+00  0.00000000E+00
  0.00000000E+00  0.00000000E+00  0.00000000E+00
  0.00000000E+00  0.00000000E+00  0.00000000E+00
  0.00000000E+00  0.00000000E+00  0.00000000E+00
  0.00000000E+00  0.00000000E+00  0.00000000E+00
  0.00000000E+00  0.00000000E+00  0.00000000E+00
  0.00000000E+00  0.00000000E+00  0.00000000E+00
  0.00000000E+00  0.00000000E+00  0.00000000E+00
  0.00000000E+00  0.00000000E+00  0.00000000E+00
  0.00000000E+00  0.00000000E+00  0.00000000E+00
  0.00000000E+00  0.00000000E+00  0.00000000E+00
  0.00000000E+00  0.00000000E+00  0.00000000E+00
  0.00000000E+00  0.00000000E+00  0.00000000E+00
  0.00000000E+00  0.00000000E+00  0.00000000E+00
  0.00000000E+00  0.00000000E+00  0.00000000E+00
