../1-ideal/perfect-sqs-32/POSCAR
1.0
7.255762 0.030286 -0.018451
0.051678 6.961171 -0.117401
-0.087967 -0.109824 6.983989
Fe
32
direct
0.017280 0.002877 0.992420 Fe
0.505350 0.977899 0.002063 Fe
0.509820 0.991467 0.484314 Fe
0.483857 0.505449 0.012642 Fe
0.235355 0.730749 0.496349 Fe
0.772366 0.263613 0.513297 Fe
0.758655 0.755251 0.020794 Fe
0.771631 0.749642 0.504150 Fe
0.976363 0.767033 0.722643 Fe
0.499527 0.232376 0.777361 Fe
0.488681 0.727088 0.260285 Fe
0.509448 0.748491 0.722525 Fe
0.257230 0.518778 0.272449 Fe
0.730379 0.998421 0.237954 Fe
0.728663 0.476614 0.254177 Fe
0.732751 0.495517 0.763665 Fe
0.000300 0.998437 0.473031 Fe
0.981946 0.519705 0.985436 Fe
0.014956 0.526123 0.479842 Fe
0.497920 0.474339 0.518068 Fe
0.254776 0.235780 0.018499 Fe
0.267918 0.243761 0.521318 Fe
0.247448 0.752746 0.003061 Fe
0.748749 0.258132 0.000026 Fe
0.978630 0.226859 0.272422 Fe
0.007533 0.231748 0.742022 Fe
0.009536 0.750510 0.269198 Fe
0.521585 0.269140 0.262408 Fe
0.248345 0.016246 0.244408 Fe
0.231888 0.988995 0.757626 Fe
0.270323 0.523067 0.728537 Fe
0.746456 0.003717 0.739374 Fe
