../1-ideal/perfect-sqs-32/POSCAR
1.0
7.115740 -0.229049 -0.159569
-0.078102 6.883437 -0.093090
0.169111 0.183982 6.844568
Fe
32
direct
0.972553 0.992067 0.975678 Fe
0.468862 0.032841 0.979861 Fe
0.487390 0.983817 0.516461 Fe
0.519679 0.508665 0.974204 Fe
0.239014 0.733318 0.494284 Fe
0.729299 0.233959 0.522910 Fe
0.773637 0.765436 0.968965 Fe
0.762588 0.720108 0.513318 Fe
0.974366 0.728895 0.757963 Fe
0.526753 0.277957 0.735215 Fe
0.513846 0.753055 0.230888 Fe
0.477617 0.777592 0.736561 Fe
0.244250 0.508774 0.270428 Fe
0.737792 0.015954 0.256140 Fe
0.724926 0.486840 0.264356 Fe
0.747868 0.509080 0.774459 Fe
0.000493 0.004473 0.471675 Fe
0.024669 0.530415 0.980523 Fe
0.005780 0.531677 0.521772 Fe
0.482839 0.489536 0.499707 Fe
0.234349 0.251544 0.972079 Fe
0.235190 0.226294 0.474432 Fe
0.236857 0.721984 0.985162 Fe
0.747428 0.277320 0.988400 Fe
0.974449 0.268407 0.275750 Fe
0.992152 0.265848 0.766078 Fe
0.981277 0.750194 0.274392 Fe
0.524737 0.249458 0.233956 Fe
0.245332 0.023177 0.276277 Fe
0.247160 0.009259 0.729960 Fe
0.238386 0.488806 0.747606 Fe
0.782547 0.994167 0.758193 Fe
