../1-ideal/perfect-sqs-32/POSCAR
1.0
7.182655 0.010326 0.023539
0.029465 6.938746 -0.045893
0.035510 -0.041340 6.975499
Fe
32
direct
0.995649 0.991221 0.002514 Fe
0.488762 0.007241 0.988450 Fe
0.487905 0.011034 0.497688 Fe
0.496040 0.495258 0.003559 Fe
0.259812 0.749217 0.498941 Fe
0.753858 0.259429 0.505138 Fe
0.754600 0.753990 0.990497 Fe
0.744999 0.750032 0.512023 Fe
0.990775 0.741345 0.745114 Fe
0.494231 0.248625 0.761662 Fe
0.487176 0.742989 0.248635 Fe
0.503957 0.742287 0.738504 Fe
0.251898 0.511119 0.251618 Fe
0.745098 0.991723 0.242103 Fe
0.751727 0.499608 0.240111 Fe
0.761784 0.502101 0.758432 Fe
0.991041 0.993737 0.504172 Fe
0.005531 0.507754 0.004877 Fe
0.006759 0.510810 0.493565 Fe
0.506234 0.503521 0.492852 Fe
0.257980 0.256959 0.997638 Fe
0.249297 0.252135 0.498679 Fe
0.239045 0.757144 0.008025 Fe
0.746470 0.260765 0.003564 Fe
0.005831 0.242744 0.257505 Fe
0.003972 0.257560 0.751865 Fe
0.989652 0.748573 0.258882 Fe
0.497290 0.249934 0.246245 Fe
0.250448 0.008955 0.253090 Fe
0.259668 0.006344 0.756331 Fe
0.261756 0.497675 0.763524 Fe
0.764542 0.001840 0.742706 Fe
