../1-ideal/perfect-sqs-32/POSCAR
1.0
7.197667 0.200237 0.048963
0.176667 7.134158 0.204590
-0.198117 -0.084763 6.879581
Fe
32
direct
0.032075 0.006451 0.983611 Fe
0.480808 0.030427 0.031436 Fe
0.482168 0.011913 0.544277 Fe
0.544305 0.451173 0.040355 Fe
0.258404 0.804213 0.546836 Fe
0.726560 0.213273 0.488333 Fe
0.730313 0.768017 0.957643 Fe
0.778835 0.787103 0.503995 Fe
0.963283 0.779995 0.734741 Fe
0.472217 0.280401 0.708637 Fe
0.477846 0.776273 0.281121 Fe
0.542580 0.794610 0.774614 Fe
0.207344 0.492376 0.266120 Fe
0.705756 0.998532 0.304713 Fe
0.753316 0.488666 0.298867 Fe
0.731076 0.475793 0.768687 Fe
0.947609 0.972852 0.538037 Fe
0.973505 0.489145 0.010856 Fe
0.959369 0.468246 0.519793 Fe
0.502444 0.479773 0.502196 Fe
0.227066 0.204599 0.997688 Fe
0.289641 0.286478 0.468529 Fe
0.286186 0.704373 0.014304 Fe
0.804017 0.227135 0.997476 Fe
0.989953 0.248171 0.218227 Fe
0.968973 0.227127 0.768356 Fe
0.022648 0.801018 0.302174 Fe
0.474950 0.241778 0.278180 Fe
0.215466 0.968734 0.220965 Fe
0.273155 0.021512 0.792651 Fe
0.279532 0.555454 0.794163 Fe
0.712305 0.958691 0.778196 Fe
