../1-ideal/perfect-sqs-32/POSCAR
1.0
7.014749 -0.144904 -0.135045
-0.033290 6.710442 0.041652
-0.002432 -0.082496 6.510774
Fe
32
direct
0.022673 0.031476 0.049072 Fe
0.488431 0.951767 0.948674 Fe
0.455351 0.960574 0.500042 Fe
0.510648 0.528796 0.015510 Fe
0.225571 0.748700 0.453649 Fe
0.705204 0.275703 0.452088 Fe
0.747550 0.762172 0.997985 Fe
0.756078 0.698794 0.502176 Fe
0.954284 0.793837 0.807251 Fe
0.521478 0.281893 0.759415 Fe
0.488637 0.732522 0.301231 Fe
0.502041 0.757679 0.762800 Fe
0.211484 0.560199 0.265566 Fe
0.758054 0.027232 0.221404 Fe
0.738534 0.546261 0.282169 Fe
0.784563 0.489182 0.696372 Fe
0.020200 0.036055 0.557517 Fe
0.023756 0.465866 0.014834 Fe
0.957727 0.447273 0.465519 Fe
0.453757 0.454852 0.517151 Fe
0.311170 0.201387 0.979746 Fe
0.201268 0.201237 0.461329 Fe
0.192860 0.692932 0.985218 Fe
0.722867 0.192033 0.041119 Fe
0.968316 0.272494 0.243734 Fe
0.979380 0.250742 0.754006 Fe
0.968836 0.738016 0.216202 Fe
0.462321 0.294526 0.231688 Fe
0.232770 0.022079 0.224872 Fe
0.228249 0.973839 0.800734 Fe
0.271571 0.475409 0.790417 Fe
0.706857 0.025804 0.697415 Fe
