../1-ideal/perfect-sqs-32/POSCAR
   1.00000000000000
     7.1752175932965576    0.0570878481783540    0.0174663225099410
    -0.0350987936363350    7.0248990540641696   -0.0109465512835590
    -0.0449801880009340   -0.0377729677522890    6.9997551476662352
   Fe   Fe
    16    16
Direct
  0.9831029656583254  0.9898686144528313  0.9928518758763900
  0.5117626145052085  0.0028675629769594  0.9890341094728541
  0.5095816791309602  0.0064506405136413  0.5041456820553947
  0.5075597172609747  0.4896713243509510  0.0088854537787668
  0.2408503524644487  0.7425377405546101  0.5042867886010640
  0.7607368552184681  0.2560871640939055  0.4894913857743433
  0.7508819020046005  0.7572933204696994  0.9873313769153356
  0.7550361904805314  0.7344198169649658  0.5140079309364722
  0.9897177244655069  0.7468492521759345  0.7368382265074800
  0.4889919119189443  0.2388457001192421  0.7558822209447769
  0.5039459135499271  0.7566421867846316  0.2396450924594404
  0.4895995122882653  0.7577542986765380  0.7400649479682286
  0.2464322532056684  0.4998501694010926  0.2581253608551606
  0.7529629189355163  0.9974186595011290  0.2539167029561114
  0.7418715118910555  0.4941228915392557  0.2496258266623244
  0.7641315787776364  0.5009453637412307  0.7605298620456296
  0.9968193584581613  0.0092298105371427  0.4932044093455303
  0.9844434570784131  0.4955590255879017  0.0045195746958342
  0.9976678875871698  0.5071354386736928  0.5003266286501002
  0.4847927784771358  0.4895386935372983  0.5129360683045263
  0.2560982565661192  0.2407123642466757  0.9994997715967031
  0.2642847468264904  0.2452352104046511  0.5084974688308321
  0.2516900332654970  0.7488168547787453  0.9903153844771424
  0.7480605715436823  0.2629314134555898  0.0116374695574137
  0.9968000288220082  0.2452156127154268  0.2557128937185880
  0.9895468979826418  0.2493241466893252  0.7632680309860191
  0.9893702566754712  0.7409577823556219  0.2605647343273390
  0.4906008519868337  0.2539396265822091  0.2337479502010993
  0.2490140518971700  0.9963844031377036  0.2440844239882551
  0.2587094194683388  0.9963875456507196  0.7615953473662955
  0.2451290029752258  0.5084602139764769  0.7486635808786275
  0.7456711248999426  0.9943790770969656  0.7538983540417021

  0.00000000E+00  0.00000000E+00  0.00000000E+00
  0.00000000E+00  0.00000000E+00  0.00000000E+00
  0.00000000E+00  0.00000000E+00  0.00000000E+00
  0.00000000E+00  0.00000000E+00  0.00000000E+00
  0.00000000E+00  0.00000000E+00  0.00000000E+00
  0.00000000E+00  0.00000000E+00  0.00000000E+00
  0.00000000E+00  0.00000000E+00  0.00000000E+00
  0.00000000E+00  0.00000000E+00  0.00000000E+00
  0.00000000E+00  0.00000000E+00  0.00000000E+00
  0.00000000E+00  0.00000000E+00  0.00000000E+00
  0.00000000E+00  0.00000000E+00  0.00000000E+00
  0.00000000E+00  0.00000000E+00  0.00000000E+00
  0.00000000E+00  0.00000000E+00  0.00000000E+00
  0.00000000E+00  0.00000000E+00  0.00000000E+00
  0.00000000E+00  0.00000000E+00  0.00000000E+00
  0.00000000E+00  0.00000000E+00  0.00000000E+00
  0.00000000E+00  0.00000000E+00  0.00000000E+00
  0.00000000E+00  0.00000000E+00  0.00000000E+00
  0.00000000E+00  0.00000000E+00  0.00000000E+00
  0.00000000E+00  0.00000000E+00  0.00000000E+00
  0.00000000E+00  0.00000000E+00  0.00000000E+00
  0.00000000E+00  0.00000000E+00  0.00000000E+00
  0.00000000E+00  0.00000000E+00  0.00000000E+00
  0.00000000E+00  0.00000000E+00  0.00000000E+00
  0.00000000E+00  0.00000000E+00  0.00000000E+00
  0.00000000E+00  0.00000000E+00  0.00000000E+00
  0.00000000E+00  0.00000000E+00  0.00000000E+00
  0.00000000E+00  0.00000000E+00  0.00000000E+00
  0.00000000E+00  0.00000000E+00  0.00000000E+00
  0.00000000E+00  0.00000000E+00  0.00000000E+00
  0.00000000E+00  0.00000000E+00  0.00000000E+00
  0.00000000E+00  0.00000000E+00  0.00000000E+00
