../1-ideal/perfect-sqs-32/POSCAR
1.0
7.117005 -0.025026 0.022989
-0.018083 7.000249 -0.016343
0.019146 -0.018345 6.918786
Fe
32
direct
0.994912 0.999056 0.001122 Fe
0.498537 0.001939 0.998095 Fe
0.498126 0.000767 0.500492 Fe
0.498235 0.499205 0.998757 Fe
0.252196 0.751348 0.503313 Fe
0.749089 0.251371 0.497258 Fe
0.753041 0.748048 0.998988 Fe
0.751936 0.748182 0.501692 Fe
0.998330 0.749275 0.745356 Fe
0.499113 0.249044 0.752875 Fe
0.496294 0.751886 0.250447 Fe
0.497943 0.752330 0.748302 Fe
0.254992 0.500629 0.249034 Fe
0.751354 0.001246 0.252973 Fe
0.750607 0.497764 0.250452 Fe
0.752872 0.500276 0.749043 Fe
0.998966 0.998374 0.496922 Fe
0.997204 0.500431 0.000240 Fe
0.998961 0.501565 0.498658 Fe
0.495211 0.497516 0.500811 Fe
0.252838 0.247984 0.001196 Fe
0.253297 0.249632 0.498843 Fe
0.249457 0.750928 0.998574 Fe
0.752612 0.251298 0.003149 Fe
0.997631 0.252834 0.248727 Fe
0.996066 0.250865 0.749958 Fe
0.000610 0.747604 0.251396 Fe
0.497730 0.248738 0.245722 Fe
0.252912 0.999239 0.249111 Fe
0.251158 0.998190 0.750317 Fe
0.251544 0.501762 0.752777 Fe
0.755056 0.001809 0.750152 Fe
