../1-ideal/perfect-sqs-32/POSCAR
   1.00000000000000
     7.0841402778793734    0.2635707118516200   -0.0843246915710760
    -0.0748315140383950    7.0292636940937419   -0.1452393534396100
     0.0331816399726710    0.1511171942525150    7.2632764705174457
   Fe   Fe
    16    16
Direct
  0.0169669660216556  0.9776141994680856  0.0102835681391937
  0.5218939535989904  0.9737094094806480  0.9844023989663100
  0.5493886563958128  0.9649737289565934  0.4452284690729584
  0.4979908164665545  0.4443159454266379  0.9912521820501681
  0.1991327121977591  0.7883114525278359  0.4616110476088977
  0.7161994812329198  0.2976731295359016  0.4591282195994779
  0.7396480297071264  0.7774221891510393  0.0342538162955393
  0.7770568081758071  0.7498497810445244  0.4993695946131993
  0.0277960101449324  0.7534484253807818  0.7467094541253587
  0.4976626330076712  0.2320030860978335  0.7330215000981468
  0.4625108770024440  0.7842262917727965  0.2024996150267242
  0.4951447237539384  0.7664344299622599  0.7162306840683783
  0.2874098905566598  0.4652505676991794  0.2638817307315975
  0.6973672064497549  0.9557415473060757  0.2470271280134497
  0.7700063040967535  0.4457210918989105  0.3025020496117534
  0.7820007623784093  0.4692362379234538  0.7922423866619539
  0.0128655015211194  0.9542784129321475  0.4865673976265867
  0.0091177612477793  0.5446255333122565  0.9520168282912991
  0.0045826700027263  0.5002117585079162  0.4523865279946904
  0.4889565512234597  0.5400783041180048  0.4861788094962165
  0.2231213770485141  0.2685684562374533  0.9978291378257396
  0.2247174130659602  0.2166743262885191  0.4871321934900763
  0.2382048920626190  0.7743086838141622  0.9977180883208234
  0.7128366516390798  0.2658172361479316  0.0015030672603302
  0.0026725621125365  0.2863201823368371  0.2957291919409855
  0.0328416757251304  0.2126013811717300  0.7934718087559034
  0.0138597978833417  0.7825559261124653  0.2947378339968907
  0.5038713998727147  0.3032018501639016  0.3005436170886355
  0.2254812544164295  0.9930481394839887  0.2211498340475373
  0.2987497276175901  0.9452392374437224  0.7437710391239705
  0.2420456633885166  0.4896959297579642  0.7656954810293684
  0.7138385871140684  0.0013001065185634  0.7163204823185154

  0.00000000E+00  0.00000000E+00  0.00000000E+00
  0.00000000E+00  0.00000000E+00  0.00000000E+00
  0.00000000E+00  0.00000000E+00  0.00000000E+00
  0.00000000E+00  0.00000000E+00  0.00000000E+00
  0.00000000E+00  0.00000000E+00  0.00000000E+00
  0.00000000E+00  0.00000000E+00  0.00000000E+00
  0.00000000E+00  0.00000000E+00  0.00000000E+00
  0.00000000E+00  0.00000000E+00  0.00000000E+00
  0.00000000E+00  0.00000000E+00  0.00000000E+00
  0.00000000E+00  0.00000000E+00  0.00000000E+00
  0.00000000E+00  0.00000000E+00  0.00000000E+00
  0.00000000E+00  0.00000000E+00  0.00000000E+00
  0.00000000E+00  0.00000000E+00  0.00000000E+00
  0.00000000E+00  0.00000000E+00  0.00000000E+00
  0.00000000E+00  0.00000000E+00  0.00000000E+00
  0.00000000E+00  0.00000000E+00  0.00000000E+00
  0.00000000E+00  0.00000000E+00  0.00000000E+00
  0.00000000E+00  0.00000000E+00  0.00000000E+00
  0.00000000E+00  0.00000000E+00  0.00000000E+00
  0.00000000E+00  0.00000000E+00  0.00000000E+00
  0.00000000E+00  0.00000000E+00  0.00000000E+00
  0.00000000E+00  0.00000000E+00  0.00000000E+00
  0.00000000E+00  0.00000000E+00  0.00000000E+00
  0.00000000E+00  0.00000000E+00  0.00000000E+00
  0.00000000E+00  0.00000000E+00  0.00000000E+00
  0.00000000E+00  0.00000000E+00  0.00000000E+00
  0.00000000E+00  0.00000000E+00  0.00000000E+00
  0.00000000E+00  0.00000000E+00  0.00000000E+00
  0.00000000E+00  0.00000000E+00  0.00000000E+00
  0.00000000E+00  0.00000000E+00  0.00000000E+00
  0.00000000E+00  0.00000000E+00  0.00000000E+00
  0.00000000E+00  0.00000000E+00  0.00000000E+00
