../1-ideal/perfect-sqs-32/POSCAR
1.0
6.754491 -0.229959 -0.026660
0.131903 7.244212 -0.145528
-0.298086 -0.266751 6.871118
Fe
32
direct
0.971783 0.025416 0.017574 Fe
0.483511 0.015322 0.956241 Fe
0.504278 0.016978 0.551884 Fe
0.482574 0.463080 0.946606 Fe
0.294420 0.730569 0.553596 Fe
0.772526 0.214264 0.458495 Fe
0.724260 0.780335 0.983645 Fe
0.778413 0.765573 0.452726 Fe
0.987013 0.772848 0.701509 Fe
0.513998 0.278996 0.793785 Fe
0.464513 0.776506 0.203239 Fe
0.547626 0.786531 0.731743 Fe
0.226140 0.479756 0.271919 Fe
0.712399 0.992363 0.223657 Fe
0.754261 0.449380 0.265772 Fe
0.739640 0.504991 0.706520 Fe
0.976796 0.974570 0.471898 Fe
0.954326 0.489209 0.020265 Fe
0.988356 0.532697 0.496091 Fe
0.481080 0.450590 0.542665 Fe
0.288661 0.273266 0.977359 Fe
0.257659 0.254882 0.454116 Fe
0.298958 0.759277 0.012299 Fe
0.780824 0.216048 0.043409 Fe
0.033497 0.259402 0.196547 Fe
0.028254 0.201765 0.801957 Fe
0.039625 0.782583 0.203865 Fe
0.531216 0.253175 0.289139 Fe
0.214495 0.016491 0.281618 Fe
0.278553 0.963397 0.742619 Fe
0.239485 0.486683 0.749306 Fe
0.773571 0.047481 0.718241 Fe
