../1-ideal/perfect-sqs-32/POSCAR
1.0
7.111238 -0.032021 -0.072150
-0.008266 6.905472 0.066880
0.047807 0.028888 6.881943
Fe
32
direct
0.996702 0.000290 0.994998 Fe
0.490893 0.011169 0.006573 Fe
0.487360 0.996811 0.513260 Fe
0.505370 0.509165 0.988734 Fe
0.240124 0.758623 0.517132 Fe
0.761736 0.254339 0.508071 Fe
0.752414 0.756818 0.998030 Fe
0.759592 0.761586 0.499524 Fe
0.994817 0.755008 0.744840 Fe
0.492624 0.261026 0.764721 Fe
0.498829 0.740874 0.237525 Fe
0.490001 0.753895 0.736442 Fe
0.248691 0.496878 0.237583 Fe
0.758661 0.991371 0.246376 Fe
0.739699 0.485821 0.249705 Fe
0.749614 0.499185 0.744344 Fe
0.007518 0.999225 0.504989 Fe
0.995486 0.510014 0.987625 Fe
0.999579 0.512578 0.497015 Fe
0.492893 0.493880 0.505829 Fe
0.256827 0.241911 0.991483 Fe
0.262139 0.237632 0.506541 Fe
0.239796 0.748699 0.984365 Fe
0.742733 0.259888 0.993859 Fe
0.996311 0.251693 0.234758 Fe
0.002439 0.251787 0.752404 Fe
0.004386 0.745618 0.264203 Fe
0.492217 0.241039 0.241646 Fe
0.261187 0.006397 0.256593 Fe
0.258785 0.984985 0.758491 Fe
0.260752 0.510647 0.764461 Fe
0.742322 0.992998 0.744998 Fe
