../1-ideal/perfect-sqs-32/POSCAR
   1.00000000000000
     7.1168687486479847   -0.0363745093956600   -0.0040301277124970
    -0.0226937142472060    6.9817789849397034    0.0056503984182240
     0.0397072477646940    0.0011109285542190    6.9150113430575617
   Fe   Fe
    16    16
Direct
  0.9979907697893040  0.9953527333799883  0.0011364620035579
  0.4968061364956924  0.0004225191605158  0.0014798785620727
  0.4951303721765825  0.9985839134870034  0.5034177897289425
  0.4966050055744304  0.4991064156865193  0.9986284140792776
  0.2546611837446449  0.7532583124545766  0.5058957686595775
  0.7505563278095124  0.2512504528063104  0.4993873267674616
  0.7556881183701023  0.7457334042337251  0.9983410414501392
  0.7502214663080409  0.7464343009530481  0.5006253198964359
  0.9954466006988199  0.7515892684940155  0.7443827403072447
  0.5016998844622265  0.2489388496079172  0.7539278169655077
  0.4985808376126926  0.7495118943142103  0.2485307653307558
  0.4985931665987309  0.7548386524597817  0.7472268877617267
  0.2542483217012546  0.5011819612292712  0.2491352650127254
  0.7513938221389225  0.0032624220465465  0.2543245124530245
  0.7521174034424902  0.4967111736308283  0.2487344402944132
  0.7496460094881243  0.4964220521095726  0.7512747120489678
  0.9982951024468036  0.9997900021980115  0.5007731510834716
  0.9995268021215011  0.5024486576729856  0.9992238845297550
  0.0006859021796259  0.4995244982769762  0.4965365168280869
  0.4940828480045454  0.4974476537358541  0.5033756399906366
  0.2512467110632173  0.2484323386356451  0.9996735009764208
  0.2533406243476009  0.2499568369708598  0.5014909980812874
  0.2489200715851183  0.7529500255893851  0.9949710655063413
  0.7530053651556159  0.2478468246926013  0.0019595138607542
  0.9946178601814566  0.2493273879329649  0.2463215425438605
  0.9983706583086089  0.2493492374814963  0.7515182287695552
  0.9970787349665784  0.7514278943959951  0.2550898204140921
  0.4994420768540806  0.2504637709573885  0.2466595924169752
  0.2511036222424963  0.0013237229925807  0.2467241788212249
  0.2522829295516686  0.9956806431983267  0.7481851925856091
  0.2508575422250843  0.5044173925489588  0.7508282530774935
  0.7517683361365357  0.0020370936349323  0.7478100434019410

  0.00000000E+00  0.00000000E+00  0.00000000E+00
  0.00000000E+00  0.00000000E+00  0.00000000E+00
  0.00000000E+00  0.00000000E+00  0.00000000E+00
  0.00000000E+00  0.00000000E+00  0.00000000E+00
  0.00000000E+00  0.00000000E+00  0.00000000E+00
  0.00000000E+00  0.00000000E+00  0.00000000E+00
  0.00000000E+00  0.00000000E+00  0.00000000E+00
  0.00000000E+00  0.00000000E+00  0.00000000E+00
  0.00000000E+00  0.00000000E+00  0.00000000E+00
  0.00000000E+00  0.00000000E+00  0.00000000E+00
  0.00000000E+00  0.00000000E+00  0.00000000E+00
  0.00000000E+00  0.00000000E+00  0.00000000E+00
  0.00000000E+00  0.00000000E+00  0.00000000E+00
  0.00000000E+00  0.00000000E+00  0.00000000E+00
  0.00000000E+00  0.00000000E+00  0.00000000E+00
  0.00000000E+00  0.00000000E+00  0.00000000E+00
  0.00000000E+00  0.00000000E+00  0.00000000E+00
  0.00000000E+00  0.00000000E+00  0.00000000E+00
  0.00000000E+00  0.00000000E+00  0.00000000E+00
  0.00000000E+00  0.00000000E+00  0.00000000E+00
  0.00000000E+00  0.00000000E+00  0.00000000E+00
  0.00000000E+00  0.00000000E+00  0.00000000E+00
  0.00000000E+00  0.00000000E+00  0.00000000E+00
  0.00000000E+00  0.00000000E+00  0.00000000E+00
  0.00000000E+00  0.00000000E+00  0.00000000E+00
  0.00000000E+00  0.00000000E+00  0.00000000E+00
  0.00000000E+00  0.00000000E+00  0.00000000E+00
  0.00000000E+00  0.00000000E+00  0.00000000E+00
  0.00000000E+00  0.00000000E+00  0.00000000E+00
  0.00000000E+00  0.00000000E+00  0.00000000E+00
  0.00000000E+00  0.00000000E+00  0.00000000E+00
  0.00000000E+00  0.00000000E+00  0.00000000E+00
