../1-ideal/perfect-sqs-32/POSCAR
1.0
6.825265 0.237682 0.020652
-0.051160 6.604878 -0.113409
-0.113425 -0.247924 6.923302
Fe
32
direct
0.027163 0.997073 0.954814 Fe
0.492164 0.999495 0.029176 Fe
0.493971 0.942235 0.539373 Fe
0.455232 0.478083 0.938477 Fe
0.194737 0.762329 0.534549 Fe
0.785556 0.293517 0.478947 Fe
0.812513 0.729099 0.036746 Fe
0.738294 0.715701 0.465635 Fe
0.029290 0.730531 0.686062 Fe
0.453129 0.212304 0.710874 Fe
0.493901 0.758448 0.256268 Fe
0.494345 0.788716 0.738957 Fe
0.212453 0.520156 0.273327 Fe
0.728050 0.944892 0.239085 Fe
0.786007 0.526158 0.268105 Fe
0.701806 0.509562 0.745790 Fe
0.951006 0.947243 0.461765 Fe
0.991201 0.557711 0.956505 Fe
0.014727 0.508671 0.556375 Fe
0.532287 0.467476 0.525710 Fe
0.300285 0.248031 0.024380 Fe
0.234984 0.296156 0.467849 Fe
0.262755 0.709530 0.980755 Fe
0.708723 0.249877 0.965938 Fe
0.051438 0.233287 0.284958 Fe
0.050999 0.234904 0.748960 Fe
0.015724 0.738835 0.280671 Fe
0.543519 0.289740 0.256608 Fe
0.230953 0.034661 0.296878 Fe
0.211767 0.021346 0.771869 Fe
0.198035 0.532161 0.770806 Fe
0.739932 0.943413 0.807465 Fe
