../1-ideal/perfect-sqs-32/POSCAR
1.0
7.280039 -0.184355 0.121988
0.249530 7.313784 0.199663
-0.292515 0.210732 6.995154
Fe
32
direct
0.997221 0.039199 0.992557 Fe
0.471786 0.023719 0.027649 Fe
0.528634 0.021541 0.490503 Fe
0.515688 0.450002 0.009330 Fe
0.242570 0.779134 0.540774 Fe
0.784525 0.275620 0.501328 Fe
0.756443 0.705879 0.968294 Fe
0.711896 0.786563 0.499398 Fe
0.017329 0.726336 0.726232 Fe
0.513911 0.254739 0.764371 Fe
0.492574 0.780228 0.282296 Fe
0.521034 0.736890 0.765520 Fe
0.213823 0.538335 0.291250 Fe
0.792992 0.029490 0.256503 Fe
0.723523 0.507558 0.210853 Fe
0.758236 0.465540 0.733512 Fe
0.041439 0.001353 0.483130 Fe
0.030654 0.485873 0.958120 Fe
0.038368 0.540655 0.481922 Fe
0.497500 0.509102 0.522705 Fe
0.231248 0.263428 0.019832 Fe
0.279810 0.214500 0.487204 Fe
0.229535 0.798377 0.994758 Fe
0.758299 0.236130 0.960941 Fe
0.030303 0.267998 0.272582 Fe
0.960488 0.247182 0.747443 Fe
0.023887 0.757068 0.215080 Fe
0.488460 0.235485 0.241870 Fe
0.210834 0.044860 0.204851 Fe
0.263942 0.039270 0.747260 Fe
0.211619 0.462088 0.772629 Fe
0.751537 0.036773 0.730147 Fe
