../1-ideal/perfect-sqs-32/POSCAR
1.0
7.475795 0.134185 0.320233
-0.016257 7.128074 0.114273
0.254412 0.228143 6.724271
Fe
32
direct
0.006253 0.996613 0.004126 Fe
0.533122 0.012347 0.043615 Fe
0.448018 0.040502 0.473716 Fe
0.522664 0.537916 0.040241 Fe
0.255166 0.794281 0.459956 Fe
0.733955 0.211404 0.544077 Fe
0.766547 0.777144 0.000210 Fe
0.738656 0.794280 0.457133 Fe
0.003955 0.747619 0.773404 Fe
0.548436 0.299287 0.779195 Fe
0.483179 0.739661 0.292674 Fe
0.457828 0.800312 0.784514 Fe
0.235036 0.516698 0.201598 Fe
0.718456 0.969141 0.298467 Fe
0.783809 0.484948 0.289688 Fe
0.704831 0.525370 0.755236 Fe
0.997783 0.009941 0.521807 Fe
0.969983 0.540220 0.971223 Fe
0.021656 0.543039 0.510413 Fe
0.495431 0.526851 0.499814 Fe
0.235787 0.243698 0.035662 Fe
0.258426 0.224314 0.520014 Fe
0.260503 0.776167 0.946434 Fe
0.781441 0.261265 0.045525 Fe
0.963517 0.291654 0.290923 Fe
0.970492 0.262989 0.787179 Fe
0.020957 0.746072 0.216262 Fe
0.474608 0.289538 0.212147 Fe
0.261406 0.030104 0.207707 Fe
0.255814 0.980481 0.753209 Fe
0.298601 0.454204 0.748317 Fe
0.746402 0.011785 0.713133 Fe
