../1-ideal/perfect-sqs-32/POSCAR
1.0
7.187632 0.154383 0.082775
0.253049 6.891458 0.005084
-0.025472 -0.060300 6.814303
Fe
32
direct
0.031009 0.053642 0.972561 Fe
0.523535 0.014875 0.985630 Fe
0.471700 0.046224 0.446314 Fe
0.465706 0.523685 0.007331 Fe
0.264773 0.734611 0.481267 Fe
0.707190 0.286610 0.488911 Fe
0.750283 0.745753 0.035464 Fe
0.696165 0.700969 0.451199 Fe
0.045770 0.800997 0.780085 Fe
0.492476 0.203441 0.702618 Fe
0.481959 0.732968 0.256664 Fe
0.459080 0.804881 0.806726 Fe
0.253541 0.535404 0.297010 Fe
0.784717 0.023556 0.219845 Fe
0.809275 0.444962 0.257530 Fe
0.712973 0.479570 0.716636 Fe
0.008850 0.979111 0.521309 Fe
0.022764 0.486126 0.020523 Fe
0.044134 0.453009 0.470840 Fe
0.492836 0.539141 0.484435 Fe
0.228379 0.301429 0.032233 Fe
0.207717 0.230096 0.502127 Fe
0.299461 0.783100 0.945225 Fe
0.754690 0.267513 0.025749 Fe
0.950808 0.232011 0.226242 Fe
0.940703 0.193650 0.731115 Fe
0.968848 0.746077 0.221565 Fe
0.502784 0.227535 0.286684 Fe
0.279921 0.977639 0.216138 Fe
0.214490 0.991387 0.777235 Fe
0.293645 0.483439 0.772762 Fe
0.723563 0.004811 0.718378 Fe
