../1-ideal/perfect-sqs-32/POSCAR
   1.00000000000000
     7.5418266389370210    0.0232371652522430   -0.4520027612648360
    -0.0333034168440200    6.6756025389391036    0.2038482076286610
    -0.4001182120624620   -0.3720758191853100    6.5887852043233401
   Fe   Fe
    16    16
Direct
  0.9454480606376592  0.0335527627164893  0.0167181413900792
  0.5510916595717816  0.0111959892673497  0.9389651308773139
  0.4823813791035505  0.9737046225365376  0.5381812478239141
  0.5433614780765765  0.5466387272270410  0.0025733963150145
  0.2233066960311163  0.7503362623096521  0.4751888740606134
  0.7263703883835717  0.2440441601865757  0.4491175389899453
  0.7111924737438144  0.7532647152278500  0.9763873487448720
  0.7117784006989751  0.7862047164254875  0.5538519196998166
  0.9341611904318867  0.7978563607564766  0.8138226235651302
  0.4916187420460361  0.2099746138878373  0.7480613380157450
  0.4695709845055944  0.7011964544603515  0.1886759428638669
  0.4529877148303854  0.7563582119124703  0.7915878038643669
  0.1982596185947187  0.4475366578388744  0.1986359259124342
  0.7384816539230101  0.9864130272333895  0.2239002113891218
  0.8157593705744475  0.5041008292061449  0.2146952365067634
  0.8154046588648711  0.5544996391628771  0.7437828438372591
  0.9665601057950823  0.0537069122990275  0.4329685486042081
  0.0238376897738917  0.5112767748800380  0.0169637010682138
  0.9550984462867689  0.5380949657210010  0.5451612985825847
  0.5353252864923732  0.4843137892816358  0.4585055892924004
  0.2070340879426027  0.3040531563137137  0.0220789981008380
  0.2370652299999989  0.2716603497575107  0.4810383000304981
  0.2198044718542320  0.7376210439145652  0.9589853426352093
  0.7775214081261836  0.1890116490839020  0.0007399546578242
  0.9415212164880131  0.2353441392881095  0.2588044689872646
  0.9932322738772754  0.2175900782088362  0.7724419462029743
  0.0661942853178346  0.8123532207564494  0.2134505979646306
  0.4764903012771100  0.2670178080777532  0.2472546235681392
  0.2591414474936897  0.9610629336347429  0.1967629619549953
  0.1892390598165008  0.0341782014360348  0.7988635326259441
  0.2433080431427754  0.5047026184202892  0.7874833122416831
  0.7436915618191691  0.9922777696556011  0.7991794878640377

  0.00000000E+00  0.00000000E+00  0.00000000E+00
  0.00000000E+00  0.00000000E+00  0.00000000E+00
  0.00000000E+00  0.00000000E+00  0.00000000E+00
  0.00000000E+00  0.00000000E+00  0.00000000E+00
  0.00000000E+00  0.00000000E+00  0.00000000E+00
  0.00000000E+00  0.00000000E+00  0.00000000E+00
  0.00000000E+00  0.00000000E+00  0.00000000E+00
  0.00000000E+00  0.00000000E+00  0.00000000E+00
  0.00000000E+00  0.00000000E+00  0.00000000E+00
  0.00000000E+00  0.00000000E+00  0.00000000E+00
  0.00000000E+00  0.00000000E+00  0.00000000E+00
  0.00000000E+00  0.00000000E+00  0.00000000E+00
  0.00000000E+00  0.00000000E+00  0.00000000E+00
  0.00000000E+00  0.00000000E+00  0.00000000E+00
  0.00000000E+00  0.00000000E+00  0.00000000E+00
  0.00000000E+00  0.00000000E+00  0.00000000E+00
  0.00000000E+00  0.00000000E+00  0.00000000E+00
  0.00000000E+00  0.00000000E+00  0.00000000E+00
  0.00000000E+00  0.00000000E+00  0.00000000E+00
  0.00000000E+00  0.00000000E+00  0.00000000E+00
  0.00000000E+00  0.00000000E+00  0.00000000E+00
  0.00000000E+00  0.00000000E+00  0.00000000E+00
  0.00000000E+00  0.00000000E+00  0.00000000E+00
  0.00000000E+00  0.00000000E+00  0.00000000E+00
  0.00000000E+00  0.00000000E+00  0.00000000E+00
  0.00000000E+00  0.00000000E+00  0.00000000E+00
  0.00000000E+00  0.00000000E+00  0.00000000E+00
  0.00000000E+00  0.00000000E+00  0.00000000E+00
  0.00000000E+00  0.00000000E+00  0.00000000E+00
  0.00000000E+00  0.00000000E+00  0.00000000E+00
  0.00000000E+00  0.00000000E+00  0.00000000E+00
  0.00000000E+00  0.00000000E+00  0.00000000E+00
