../1-ideal/perfect-sqs-32/POSCAR
1.0
7.212949 0.242221 -0.193913
-0.040792 6.749248 -0.087102
-0.058053 0.143604 7.074325
Fe
32
direct
0.968100 0.025500 0.004624 Fe
0.487953 0.016541 0.979771 Fe
0.469630 0.037037 0.533250 Fe
0.483414 0.494567 0.994984 Fe
0.275919 0.764263 0.507899 Fe
0.748370 0.276970 0.474158 Fe
0.764270 0.751837 0.004493 Fe
0.737842 0.743857 0.509508 Fe
0.025464 0.731529 0.742088 Fe
0.523945 0.222183 0.761211 Fe
0.486365 0.745230 0.222029 Fe
0.525502 0.766583 0.764686 Fe
0.243429 0.474667 0.285123 Fe
0.772755 0.998811 0.261289 Fe
0.727321 0.470447 0.238683 Fe
0.776767 0.500651 0.770505 Fe
0.994241 0.994406 0.525264 Fe
0.969198 0.520146 0.961546 Fe
0.016359 0.485227 0.474631 Fe
0.521006 0.534475 0.527571 Fe
0.226037 0.266166 0.006391 Fe
0.225086 0.231691 0.495264 Fe
0.213951 0.735189 0.988096 Fe
0.733350 0.255207 0.975544 Fe
0.959881 0.243873 0.284165 Fe
0.984996 0.278283 0.711294 Fe
0.985705 0.718793 0.229395 Fe
0.512672 0.238771 0.259170 Fe
0.279719 0.977032 0.288365 Fe
0.269628 0.983158 0.790293 Fe
0.250630 0.463949 0.748945 Fe
0.742286 0.997572 0.719454 Fe
