../1-ideal/perfect-sqs-32/POSCAR
1.0
7.331769 -0.087049 0.040838
0.054494 6.716692 -0.107124
-0.008845 -0.033241 6.834747
Fe
32
direct
0.993688 0.009251 0.055138 Fe
0.501142 0.039569 0.956378 Fe
0.543505 0.999787 0.550129 Fe
0.460030 0.552663 0.993001 Fe
0.272369 0.774451 0.464229 Fe
0.725783 0.307528 0.544528 Fe
0.780500 0.777328 0.954566 Fe
0.781107 0.709271 0.444109 Fe
0.971744 0.723309 0.730927 Fe
0.514937 0.253444 0.735872 Fe
0.514825 0.768365 0.226026 Fe
0.491555 0.791578 0.786211 Fe
0.288761 0.510523 0.302809 Fe
0.737796 0.049862 0.203827 Fe
0.793001 0.457772 0.203104 Fe
0.733957 0.443348 0.693845 Fe
0.987025 0.994406 0.452783 Fe
0.016456 0.477696 0.034895 Fe
0.957132 0.500024 0.537770 Fe
0.461062 0.531691 0.509491 Fe
0.232629 0.238980 0.054441 Fe
0.276786 0.199721 0.542197 Fe
0.261555 0.767172 0.028322 Fe
0.809037 0.265413 0.984323 Fe
0.042649 0.260630 0.206186 Fe
0.945126 0.265929 0.733775 Fe
0.033041 0.740119 0.212844 Fe
0.454994 0.193713 0.275856 Fe
0.223793 0.034590 0.198701 Fe
0.295091 0.988506 0.733645 Fe
0.281504 0.517462 0.754485 Fe
0.708439 0.033822 0.776920 Fe
