../1-ideal/perfect-sqs-32/POSCAR
   1.00000000000000
     7.5579557876779484   -0.1108811286168710    0.4507842091309200
     0.3517877525587000    6.9699267677090946   -0.2944599658316140
     0.4544086099902260   -0.1479148214333890    6.8993894668803870
   Fe   Fe
    16    16
Direct
  0.9608642219415344  0.0223092342169906  0.0250655008846294
  0.4658048069327805  0.0429606866540553  0.0557724619200357
  0.5581228044332107  0.0378400592768529  0.4734152512585581
  0.4876095304937991  0.5365799073290276  0.9490520376515050
  0.2194359994606501  0.8098022562496752  0.4707378190855565
  0.7544160327341771  0.2584502502031256  0.5553182578864480
  0.7365709556980988  0.7363076975969420  0.0056395049908033
  0.7727930273742913  0.7798195486054453  0.5186501293765318
  0.9353414764614740  0.7310246947441925  0.7630422773933105
  0.5335507941021760  0.2898174853576805  0.7212105867068104
  0.5262236688176714  0.7057220212937096  0.3022048335666838
  0.5311388376772612  0.8166777438825221  0.6955203766198323
  0.2651647252132676  0.4375002783218420  0.3136042205683935
  0.7407598306869758  0.0592188245064378  0.3081261927609873
  0.7848129966566049  0.5101280766184431  0.2582200658176816
  0.7271882029333696  0.5008940669280264  0.8140722170134325
  0.0544592407698374  0.9919762416671603  0.4711774082542703
  0.9721607260556695  0.5579079307621271  0.0584954618364577
  0.9541433468813025  0.5196862265221185  0.4703670543005245
  0.4392522668163679  0.4472028854789798  0.4887248144339935
  0.2936050775336625  0.2111748904880315  0.0131048383008405
  0.3142896432279656  0.3050100926180903  0.4957776062847188
  0.2712581263539917  0.7563674735222747  0.9475923838622577
  0.7324995527903511  0.2138643408558352  0.0607510037320864
  0.0472756172605244  0.2055016578120075  0.2888311694590371
  0.9890477510703235  0.2576092383337780  0.7382518560989908
  0.9596693636043838  0.7967039593401637  0.3176933019977426
  0.5548121163463620  0.2218380683004426  0.2655385160174077
  0.2500771942349544  0.9459352818326110  0.1952049233860293
  0.2106102247132569  0.9562799852025421  0.7590028016835291
  0.2862280466466487  0.5231606030390665  0.7817629261819761
  0.7960923180077870  0.0620522151616925  0.7384991692355527

  0.00000000E+00  0.00000000E+00  0.00000000E+00
  0.00000000E+00  0.00000000E+00  0.00000000E+00
  0.00000000E+00  0.00000000E+00  0.00000000E+00
  0.00000000E+00  0.00000000E+00  0.00000000E+00
  0.00000000E+00  0.00000000E+00  0.00000000E+00
  0.00000000E+00  0.00000000E+00  0.00000000E+00
  0.00000000E+00  0.00000000E+00  0.00000000E+00
  0.00000000E+00  0.00000000E+00  0.00000000E+00
  0.00000000E+00  0.00000000E+00  0.00000000E+00
  0.00000000E+00  0.00000000E+00  0.00000000E+00
  0.00000000E+00  0.00000000E+00  0.00000000E+00
  0.00000000E+00  0.00000000E+00  0.00000000E+00
  0.00000000E+00  0.00000000E+00  0.00000000E+00
  0.00000000E+00  0.00000000E+00  0.00000000E+00
  0.00000000E+00  0.00000000E+00  0.00000000E+00
  0.00000000E+00  0.00000000E+00  0.00000000E+00
  0.00000000E+00  0.00000000E+00  0.00000000E+00
  0.00000000E+00  0.00000000E+00  0.00000000E+00
  0.00000000E+00  0.00000000E+00  0.00000000E+00
  0.00000000E+00  0.00000000E+00  0.00000000E+00
  0.00000000E+00  0.00000000E+00  0.00000000E+00
  0.00000000E+00  0.00000000E+00  0.00000000E+00
  0.00000000E+00  0.00000000E+00  0.00000000E+00
  0.00000000E+00  0.00000000E+00  0.00000000E+00
  0.00000000E+00  0.00000000E+00  0.00000000E+00
  0.00000000E+00  0.00000000E+00  0.00000000E+00
  0.00000000E+00  0.00000000E+00  0.00000000E+00
  0.00000000E+00  0.00000000E+00  0.00000000E+00
  0.00000000E+00  0.00000000E+00  0.00000000E+00
  0.00000000E+00  0.00000000E+00  0.00000000E+00
  0.00000000E+00  0.00000000E+00  0.00000000E+00
  0.00000000E+00  0.00000000E+00  0.00000000E+00
