../1-ideal/perfect-sqs-32/POSCAR
1.0
7.009200 -0.165496 0.091280
-0.093967 7.059062 -0.049590
0.137816 -0.117490 6.848764
Fe
32
direct
0.994732 0.005600 0.993841 Fe
0.477454 0.012077 0.021478 Fe
0.497044 0.016892 0.501375 Fe
0.498661 0.498840 0.992080 Fe
0.250620 0.772166 0.500150 Fe
0.765299 0.264039 0.491697 Fe
0.744671 0.757018 0.020689 Fe
0.757305 0.760239 0.482273 Fe
0.006643 0.729011 0.746803 Fe
0.493036 0.261211 0.754548 Fe
0.498811 0.741535 0.266560 Fe
0.518451 0.738156 0.729954 Fe
0.262966 0.511777 0.226737 Fe
0.733081 0.992207 0.251279 Fe
0.738177 0.518217 0.259494 Fe
0.741896 0.521600 0.743910 Fe
0.978106 0.999617 0.476666 Fe
0.013919 0.480235 0.022343 Fe
0.987817 0.503148 0.504789 Fe
0.515998 0.477442 0.497676 Fe
0.256890 0.252190 0.001010 Fe
0.267466 0.248704 0.485553 Fe
0.263406 0.767780 0.003846 Fe
0.732355 0.266968 0.999584 Fe
0.997309 0.267170 0.226767 Fe
0.998568 0.251422 0.732451 Fe
0.983955 0.768851 0.264288 Fe
0.507335 0.248498 0.237075 Fe
0.273258 0.978271 0.261308 Fe
0.237200 0.988896 0.767186 Fe
0.235291 0.483805 0.749634 Fe
0.769279 0.992475 0.763880 Fe
