../1-ideal/perfect-sqs-32/POSCAR
1.0
7.031235 -0.061870 0.023550
0.018853 6.963439 0.012296
-0.074890 0.070147 6.969899
Fe
32
direct
0.985648 0.003193 0.991954 Fe
0.508427 0.996855 0.009395 Fe
0.506553 0.013264 0.498835 Fe
0.497950 0.493348 0.996756 Fe
0.264569 0.738317 0.516671 Fe
0.743263 0.259468 0.501004 Fe
0.751203 0.746160 0.003846 Fe
0.745606 0.757913 0.506094 Fe
0.008500 0.742160 0.745204 Fe
0.506233 0.254101 0.757912 Fe
0.484155 0.749266 0.250387 Fe
0.491631 0.745772 0.749935 Fe
0.259739 0.499670 0.237389 Fe
0.744877 0.013020 0.241904 Fe
0.755218 0.502798 0.247488 Fe
0.746351 0.504989 0.745714 Fe
0.005525 0.010997 0.495808 Fe
0.000453 0.499438 0.009884 Fe
0.006023 0.514359 0.510175 Fe
0.503768 0.500166 0.503020 Fe
0.250613 0.254196 0.989653 Fe
0.259727 0.248962 0.510283 Fe
0.246487 0.753497 0.003896 Fe
0.748917 0.239556 0.991791 Fe
0.989660 0.250436 0.258802 Fe
0.006667 0.240807 0.747681 Fe
0.001220 0.742618 0.255086 Fe
0.498369 0.254045 0.252074 Fe
0.249080 0.008720 0.249113 Fe
0.250139 0.986586 0.761434 Fe
0.248397 0.511681 0.749573 Fe
0.753063 0.999969 0.753764 Fe
