../1-ideal/perfect-sqs-32/POSCAR
1.0
6.927278 0.196729 0.041764
0.162574 6.779456 -0.180939
-0.005653 0.079864 7.104534
Fe
32
direct
0.984197 0.005519 0.980768 Fe
0.528326 0.000969 0.970383 Fe
0.490928 0.005990 0.472448 Fe
0.504138 0.497224 0.012439 Fe
0.236618 0.764567 0.518256 Fe
0.720964 0.269346 0.503923 Fe
0.732050 0.746677 0.012692 Fe
0.723321 0.775720 0.483845 Fe
0.022101 0.727984 0.763608 Fe
0.479181 0.266420 0.754706 Fe
0.503567 0.728866 0.224421 Fe
0.474226 0.782582 0.750697 Fe
0.266079 0.489596 0.228557 Fe
0.765482 0.990936 0.277873 Fe
0.767360 0.512757 0.268027 Fe
0.779781 0.492199 0.756372 Fe
0.008739 0.005186 0.472570 Fe
0.985017 0.518877 0.016216 Fe
0.976632 0.499048 0.513352 Fe
0.511464 0.505806 0.529397 Fe
0.266173 0.253959 0.029529 Fe
0.225676 0.245444 0.525077 Fe
0.272837 0.759083 0.973743 Fe
0.752789 0.281092 0.001705 Fe
0.990893 0.246850 0.233413 Fe
0.013590 0.262526 0.751137 Fe
0.000037 0.755488 0.270100 Fe
0.512906 0.259485 0.221230 Fe
0.222514 0.029635 0.271629 Fe
0.226536 0.027747 0.745823 Fe
0.264486 0.520914 0.725775 Fe
0.776900 0.981133 0.774198 Fe
