../1-ideal/perfect-sqs-32/POSCAR
1.0
6.936562 0.013412 0.124824
-0.183605 6.982322 -0.030821
0.071455 0.165389 6.818002
Fe
32
direct
0.012445 0.021685 0.989898 Fe
0.509267 0.974325 0.981675 Fe
0.490507 0.012331 0.530488 Fe
0.470585 0.471920 0.982510 Fe
0.245986 0.735657 0.503688 Fe
0.735229 0.264829 0.500021 Fe
0.745033 0.726935 0.013799 Fe
0.759298 0.737290 0.521465 Fe
0.984109 0.754915 0.725808 Fe
0.473140 0.272002 0.741621 Fe
0.485011 0.770753 0.244345 Fe
0.468127 0.757289 0.741629 Fe
0.281381 0.490849 0.249868 Fe
0.770744 0.986056 0.231341 Fe
0.780231 0.475353 0.244571 Fe
0.734954 0.508014 0.759050 Fe
0.980744 0.983870 0.518537 Fe
0.016451 0.498147 0.022009 Fe
0.982212 0.493075 0.470832 Fe
0.470048 0.512254 0.497247 Fe
0.224206 0.223392 0.002974 Fe
0.241137 0.218895 0.525176 Fe
0.220609 0.776575 0.023462 Fe
0.767480 0.223994 0.032886 Fe
0.020065 0.259688 0.235962 Fe
0.020442 0.273793 0.748437 Fe
0.020498 0.717395 0.223883 Fe
0.478092 0.219848 0.258371 Fe
0.240492 0.988776 0.256395 Fe
0.280482 0.012263 0.738130 Fe
0.268726 0.479486 0.752943 Fe
0.757633 0.996555 0.751521 Fe
