../1-ideal/perfect-sqs-32/POSCAR
1.0
7.287535 0.013345 -0.116782
0.137732 6.916865 -0.086296
-0.162265 -0.009538 6.743366
Fe
32
direct
0.003935 0.012099 0.987631 Fe
0.475940 0.004827 0.025062 Fe
0.497249 0.988480 0.511006 Fe
0.499033 0.514705 0.007150 Fe
0.251103 0.737747 0.488412 Fe
0.776896 0.276412 0.485520 Fe
0.740718 0.772150 0.974566 Fe
0.761614 0.771100 0.479538 Fe
0.976479 0.742631 0.727831 Fe
0.511947 0.264038 0.763655 Fe
0.515947 0.730858 0.257621 Fe
0.474323 0.757471 0.754124 Fe
0.256704 0.486821 0.273419 Fe
0.779580 0.006298 0.267042 Fe
0.770114 0.509371 0.245953 Fe
0.755879 0.488347 0.769869 Fe
0.984895 0.969930 0.485855 Fe
0.020768 0.477378 0.021752 Fe
0.014140 0.516369 0.482017 Fe
0.502262 0.516987 0.499616 Fe
0.253535 0.237991 0.004759 Fe
0.271546 0.236468 0.516567 Fe
0.247360 0.725415 0.997714 Fe
0.770965 0.254427 0.014352 Fe
0.999883 0.236133 0.246083 Fe
0.989189 0.250428 0.778121 Fe
0.027569 0.744836 0.262471 Fe
0.477624 0.265823 0.235509 Fe
0.252866 0.016309 0.268831 Fe
0.260917 0.011820 0.742561 Fe
0.236486 0.504850 0.748630 Fe
0.766313 0.023023 0.766814 Fe
