../1-ideal/perfect-sqs-32/POSCAR
1.0
6.862807 0.102021 0.048580
-0.036907 6.850794 -0.011166
-0.015063 -0.172552 7.204308
Fe
32
direct
0.019436 0.015931 0.993333 Fe
0.518059 0.014999 0.998242 Fe
0.462736 0.034487 0.462747 Fe
0.514979 0.497797 0.959834 Fe
0.272270 0.729438 0.482307 Fe
0.753065 0.249601 0.521326 Fe
0.776976 0.737006 0.033870 Fe
0.747191 0.763318 0.508013 Fe
0.037576 0.768279 0.723364 Fe
0.465024 0.216839 0.750735 Fe
0.468345 0.761856 0.254911 Fe
0.508531 0.769222 0.776893 Fe
0.263364 0.499810 0.211910 Fe
0.779604 0.965603 0.282256 Fe
0.732435 0.520173 0.232605 Fe
0.782537 0.522202 0.713589 Fe
0.027766 0.007138 0.525611 Fe
0.971212 0.491524 0.965144 Fe
0.962100 0.507179 0.461817 Fe
0.519866 0.468543 0.464772 Fe
0.284810 0.239105 0.000424 Fe
0.270737 0.219808 0.511430 Fe
0.223339 0.772440 0.030101 Fe
0.721400 0.222810 0.041802 Fe
0.032851 0.272510 0.288244 Fe
0.033865 0.275964 0.763829 Fe
0.028520 0.711376 0.269220 Fe
0.473972 0.253660 0.254516 Fe
0.243081 0.030099 0.272277 Fe
0.219937 0.022873 0.781161 Fe
0.244932 0.465485 0.765709 Fe
0.780873 0.999693 0.731459 Fe
