../1-ideal/perfect-sqs-32/POSCAR
1.0
7.044725 -0.463348 0.431600
0.170847 6.523866 -0.063014
-0.022642 0.383611 7.034673
Fe
32
direct
0.002621 0.065407 0.003169 Fe
0.489185 0.026645 0.033086 Fe
0.472526 0.069731 0.533311 Fe
0.476432 0.558906 0.033948 Fe
0.195311 0.748279 0.523012 Fe
0.784966 0.248516 0.478579 Fe
0.793055 0.695878 0.018537 Fe
0.739786 0.700404 0.524807 Fe
0.979309 0.787203 0.760038 Fe
0.481276 0.304306 0.711960 Fe
0.439384 0.700989 0.296891 Fe
0.509742 0.723635 0.796315 Fe
0.230546 0.567840 0.268875 Fe
0.745472 0.998493 0.183182 Fe
0.773399 0.492987 0.244137 Fe
0.752144 0.511499 0.801586 Fe
0.042319 0.979156 0.552487 Fe
0.047866 0.489327 0.034631 Fe
0.939044 0.519423 0.436400 Fe
0.525881 0.554428 0.491448 Fe
0.286009 0.315231 0.039669 Fe
0.231477 0.244953 0.568454 Fe
0.210793 0.746545 0.950340 Fe
0.743179 0.311863 0.937325 Fe
0.964002 0.279269 0.288185 Fe
0.020107 0.206444 0.743223 Fe
0.001046 0.765621 0.247032 Fe
0.436637 0.229982 0.199726 Fe
0.196040 0.973065 0.258790 Fe
0.194144 0.062243 0.765967 Fe
0.214027 0.478341 0.695448 Fe
0.741071 0.046524 0.691265 Fe
