../1-ideal/perfect-sqs-32/POSCAR
   1.00000000000000
     6.6870516044324004    0.2674759086540580   -0.3879774234885730
     0.1681331525450660    7.2388965119441444   -0.3336359042217810
     0.4955876862188330    0.4774054035104340    6.9203596878198113
   Fe   Fe
    16    16
Direct
  0.9762764948942859  0.9882816606384424  0.0059103211051053
  0.4655779638297162  0.9493596684917591  0.9568909468960243
  0.4394290976790245  0.9959712362005604  0.5496636728758091
  0.5009865371852911  0.5333088714199690  0.0515113278599983
  0.2887882831475395  0.7290779036003840  0.4673765800162428
  0.7246000798706618  0.2399024212861889  0.5316200500566168
  0.7896023345356937  0.7775304137488348  0.0281639002977485
  0.7180653151721756  0.7022281892642113  0.4628761666059944
  0.9881207229416020  0.8116704104282064  0.7327144991705694
  0.5678097713884966  0.2932804019139468  0.7114373501279232
  0.4681176509299618  0.7979973392058142  0.3157190881504874
  0.4631370296419774  0.7655459119518753  0.6821802214712278
  0.2581867981115380  0.5249605847098664  0.2436120291241792
  0.8116115965954620  0.9736346441439210  0.2047415964993675
  0.8086562014164329  0.4834920382329173  0.2168532203816724
  0.8165080076277604  0.5653673436513174  0.7922963505967573
  0.9515944824076712  0.0468560727289642  0.5357306601154477
  0.9642495110649278  0.4582564879476010  0.9868604843205659
  0.9443492615950078  0.5617042580328402  0.5280652439564975
  0.5515223479602227  0.5273259028266679  0.4344011958887677
  0.3044217264289415  0.1844634114815022  0.9574560320702830
  0.3041625992812342  0.2614157156906458  0.4492266575276034
  0.2068212052791480  0.7340537049505116  0.9571514347411139
  0.7429870246581274  0.2687254741280967  0.9830195926030498
  0.9545051405437164  0.2187864942965163  0.1790283987827266
  0.9951743664076815  0.2263324059695435  0.8121237836562472
  0.9437045520416447  0.7800693371358207  0.1835928146564072
  0.4325052081657930  0.3190089257326818  0.1895926904841545
  0.2949001549910903  0.0047519048466711  0.2718125852940503
  0.2543287834377566  0.9326120265888775  0.7588125859197916
  0.2653460889028736  0.4679762697681227  0.7946299593217745
  0.7980938927504866  0.0428122454885198  0.7385877802242717

  0.00000000E+00  0.00000000E+00  0.00000000E+00
  0.00000000E+00  0.00000000E+00  0.00000000E+00
  0.00000000E+00  0.00000000E+00  0.00000000E+00
  0.00000000E+00  0.00000000E+00  0.00000000E+00
  0.00000000E+00  0.00000000E+00  0.00000000E+00
  0.00000000E+00  0.00000000E+00  0.00000000E+00
  0.00000000E+00  0.00000000E+00  0.00000000E+00
  0.00000000E+00  0.00000000E+00  0.00000000E+00
  0.00000000E+00  0.00000000E+00  0.00000000E+00
  0.00000000E+00  0.00000000E+00  0.00000000E+00
  0.00000000E+00  0.00000000E+00  0.00000000E+00
  0.00000000E+00  0.00000000E+00  0.00000000E+00
  0.00000000E+00  0.00000000E+00  0.00000000E+00
  0.00000000E+00  0.00000000E+00  0.00000000E+00
  0.00000000E+00  0.00000000E+00  0.00000000E+00
  0.00000000E+00  0.00000000E+00  0.00000000E+00
  0.00000000E+00  0.00000000E+00  0.00000000E+00
  0.00000000E+00  0.00000000E+00  0.00000000E+00
  0.00000000E+00  0.00000000E+00  0.00000000E+00
  0.00000000E+00  0.00000000E+00  0.00000000E+00
  0.00000000E+00  0.00000000E+00  0.00000000E+00
  0.00000000E+00  0.00000000E+00  0.00000000E+00
  0.00000000E+00  0.00000000E+00  0.00000000E+00
  0.00000000E+00  0.00000000E+00  0.00000000E+00
  0.00000000E+00  0.00000000E+00  0.00000000E+00
  0.00000000E+00  0.00000000E+00  0.00000000E+00
  0.00000000E+00  0.00000000E+00  0.00000000E+00
  0.00000000E+00  0.00000000E+00  0.00000000E+00
  0.00000000E+00  0.00000000E+00  0.00000000E+00
  0.00000000E+00  0.00000000E+00  0.00000000E+00
  0.00000000E+00  0.00000000E+00  0.00000000E+00
  0.00000000E+00  0.00000000E+00  0.00000000E+00
