../1-ideal/perfect-sqs-32/POSCAR
   1.00000000000000
     7.1136158923345389   -0.0218560721035070    0.0182591206768930
    -0.0242028415599210    6.9963604145717193   -0.0135666618691840
     0.0162335158779840   -0.0169342087679350    6.9244798157845979
   Fe   Fe
    16    16
Direct
  0.9948973312742879  0.9984454768541795  0.0009015031509136
  0.4988744220356622  0.0024392562709110  0.9983963402459395
  0.4978076207011100  0.0004904549748588  0.5008025407489640
  0.4976751686574445  0.4987998439444539  0.9976712151206470
  0.2522919436777826  0.7508666748880017  0.5035699978085972
  0.7502912720173498  0.2517037424639028  0.4979310521086262
  0.7542347818877602  0.7487292555956344  0.9994945526730561
  0.7527962965340080  0.7475656480036363  0.5021623487167233
  0.9976923279535015  0.7493920212955061  0.7466352724670173
  0.5001780112435767  0.2479700795165414  0.7518620465006975
  0.4964567269431015  0.7514032632917420  0.2505123155413287
  0.4973792821159151  0.7521520225123481  0.7478722910825510
  0.2549680823545373  0.5017621566097006  0.2496787833865355
  0.7520426851227882  0.0015787931095659  0.2518872948777968
  0.7513346590125423  0.4979247746824313  0.2515485797678849
  0.7524999897565507  0.4990875358091529  0.7490879860666340
  0.9979471830404378  0.9985503468064820  0.4977779091937009
  0.9975119234758836  0.5005370268042739  0.0004976032181290
  0.9987407562279103  0.5025779161139710  0.4989645177319559
  0.4952047716866943  0.4985194612155297  0.5006492097874684
  0.2523127945985806  0.2476692132646221  0.0021827484651453
  0.2540335747359492  0.2491410849996925  0.4989588034728953
  0.2501641169869515  0.7518431007537458  0.9979863959352215
  0.7528861976142878  0.2506145311866987  0.0039196133453743
  0.9970965809035235  0.2522201997104005  0.2477338966091409
  0.9958337663435444  0.2508441165327540  0.7508201493077209
  0.9998322635687344  0.7484996329790263  0.2515885285811947
  0.4972847002609768  0.2491845019233452  0.2462517539543683
  0.2525221578599854  0.9997011225314267  0.2492774464585068
  0.2513657161614589  0.9978632651010884  0.7509909699905748
  0.2522209235590083  0.5015216820853041  0.7518489190698148
  0.7545218237912437  0.0011377787390856  0.7497824520616660

  0.00000000E+00  0.00000000E+00  0.00000000E+00
  0.00000000E+00  0.00000000E+00  0.00000000E+00
  0.00000000E+00  0.00000000E+00  0.00000000E+00
  0.00000000E+00  0.00000000E+00  0.00000000E+00
  0.00000000E+00  0.00000000E+00  0.00000000E+00
  0.00000000E+00  0.00000000E+00  0.00000000E+00
  0.00000000E+00  0.00000000E+00  0.00000000E+00
  0.00000000E+00  0.00000000E+00  0.00000000E+00
  0.00000000E+00  0.00000000E+00  0.00000000E+00
  0.00000000E+00  0.00000000E+00  0.00000000E+00
  0.00000000E+00  0.00000000E+00  0.00000000E+00
  0.00000000E+00  0.00000000E+00  0.00000000E+00
  0.00000000E+00  0.00000000E+00  0.00000000E+00
  0.00000000E+00  0.00000000E+00  0.00000000E+00
  0.00000000E+00  0.00000000E+00  0.00000000E+00
  0.00000000E+00  0.00000000E+00  0.00000000E+00
  0.00000000E+00  0.00000000E+00  0.00000000E+00
  0.00000000E+00  0.00000000E+00  0.00000000E+00
  0.00000000E+00  0.00000000E+00  0.00000000E+00
  0.00000000E+00  0.00000000E+00  0.00000000E+00
  0.00000000E+00  0.00000000E+00  0.00000000E+00
  0.00000000E+00  0.00000000E+00  0.00000000E+00
  0.00000000E+00  0.00000000E+00  0.00000000E+00
  0.00000000E+00  0.00000000E+00  0.00000000E+00
  0.00000000E+00  0.00000000E+00  0.00000000E+00
  0.00000000E+00  0.00000000E+00  0.00000000E+00
  0.00000000E+00  0.00000000E+00  0.00000000E+00
  0.00000000E+00  0.00000000E+00  0.00000000E+00
  0.00000000E+00  0.00000000E+00  0.00000000E+00
  0.00000000E+00  0.00000000E+00  0.00000000E+00
  0.00000000E+00  0.00000000E+00  0.00000000E+00
  0.00000000E+00  0.00000000E+00  0.00000000E+00
