../1-ideal/perfect-sqs-32/POSCAR
1.0
7.162087 0.182462 -0.034978
-0.134340 7.070784 -0.055697
-0.201110 0.015315 7.051648
Fe
32
direct
0.019496 0.987741 0.994022 Fe
0.470640 0.993598 0.983501 Fe
0.495921 0.021578 0.517152 Fe
0.474632 0.479162 0.976760 Fe
0.250997 0.755686 0.477481 Fe
0.773433 0.265381 0.522363 Fe
0.781159 0.733766 0.981066 Fe
0.772818 0.748716 0.530159 Fe
0.016204 0.763077 0.769218 Fe
0.491990 0.241357 0.742632 Fe
0.515201 0.759844 0.227011 Fe
0.494118 0.741185 0.719894 Fe
0.259394 0.514415 0.272329 Fe
0.721633 0.990263 0.237877 Fe
0.768097 0.521475 0.265876 Fe
0.755650 0.500428 0.774645 Fe
0.016737 0.985981 0.471926 Fe
0.024466 0.493036 0.008831 Fe
0.987269 0.478886 0.505704 Fe
0.486693 0.495982 0.486384 Fe
0.273886 0.253830 0.981036 Fe
0.280341 0.268647 0.515883 Fe
0.261949 0.732768 0.014841 Fe
0.740632 0.254682 0.993427 Fe
0.982917 0.237786 0.227864 Fe
0.970174 0.260819 0.733908 Fe
0.027530 0.718195 0.257979 Fe
0.506150 0.238503 0.277816 Fe
0.268708 0.990085 0.243232 Fe
0.241168 0.026629 0.754680 Fe
0.231963 0.481862 0.732639 Fe
0.755430 0.029973 0.726609 Fe
