../1-ideal/perfect-sqs-32/POSCAR
   1.00000000000000
     7.1130493899464291   -0.1696121077842810   -0.0861762449681690
     0.0538023438194490    7.1525202181049670    0.0174063384706490
    -0.0383036824620120   -0.1645259802188240    6.7790976208252518
   Fe   Fe
    16    16
Direct
  0.0036831280931366  0.0131510371225545  0.9822968844368134
  0.5044486565653159  0.9896159140717415  0.0165665665074570
  0.4777389201269173  0.9999919997093585  0.5040517070090971
  0.5172557582162867  0.5019153878376486  0.0090861077327204
  0.2572794763014841  0.7472978548652307  0.4943321117275445
  0.7572177949679784  0.2352561550873133  0.4964164607333217
  0.7595282538888739  0.7667525414942418  0.9994267969284465
  0.7431885114284214  0.7459295556013572  0.4916527137649851
  0.0058959365974260  0.7412308330086290  0.7684437854924226
  0.4927385199860836  0.2524208261075174  0.7513232416471993
  0.4907923936967791  0.7639377613087959  0.2497139541569169
  0.5021873565797890  0.7648644600596697  0.7524609685762158
  0.2504705577877928  0.5122102391350936  0.2364393299739262
  0.7662155864241242  0.0071360212713500  0.2373448844973822
  0.7411825892683481  0.4865155899649167  0.2702841620923948
  0.7363849601171921  0.4824507687594348  0.7350796405104987
  0.9949648825359247  0.0076944379862169  0.4884726290918593
  0.9841282288665241  0.5099003353011824  0.0033530592029862
  0.0170576383388195  0.5138713746148724  0.4805050390036101
  0.5115999851734472  0.5192133422295768  0.4813104963855892
  0.2516029426024815  0.2327061939945949  0.9880016944380188
  0.2560871775444369  0.2334531997230016  0.4978018283772556
  0.2682457139817132  0.7427699870971622  0.9935860266351497
  0.7527397667423443  0.2539163539318707  0.0127225908216033
  0.9905486836408528  0.2367251233478171  0.2647633486652765
  0.0140875818841550  0.2553884165757907  0.7607597071469954
  0.9799140829981994  0.7508597043017460  0.2736338169570871
  0.5008883066771617  0.2438258441914627  0.2336735525877742
  0.2443478572281848  0.9840506889267786  0.2651919307099959
  0.2391841363935470  0.9834945131015189  0.7396144343119531
  0.2682481818506446  0.5031518839277709  0.7428992073805674
  0.7412663455419448  0.0193394174638044  0.7559327264112881

  0.00000000E+00  0.00000000E+00  0.00000000E+00
  0.00000000E+00  0.00000000E+00  0.00000000E+00
  0.00000000E+00  0.00000000E+00  0.00000000E+00
  0.00000000E+00  0.00000000E+00  0.00000000E+00
  0.00000000E+00  0.00000000E+00  0.00000000E+00
  0.00000000E+00  0.00000000E+00  0.00000000E+00
  0.00000000E+00  0.00000000E+00  0.00000000E+00
  0.00000000E+00  0.00000000E+00  0.00000000E+00
  0.00000000E+00  0.00000000E+00  0.00000000E+00
  0.00000000E+00  0.00000000E+00  0.00000000E+00
  0.00000000E+00  0.00000000E+00  0.00000000E+00
  0.00000000E+00  0.00000000E+00  0.00000000E+00
  0.00000000E+00  0.00000000E+00  0.00000000E+00
  0.00000000E+00  0.00000000E+00  0.00000000E+00
  0.00000000E+00  0.00000000E+00  0.00000000E+00
  0.00000000E+00  0.00000000E+00  0.00000000E+00
  0.00000000E+00  0.00000000E+00  0.00000000E+00
  0.00000000E+00  0.00000000E+00  0.00000000E+00
  0.00000000E+00  0.00000000E+00  0.00000000E+00
  0.00000000E+00  0.00000000E+00  0.00000000E+00
  0.00000000E+00  0.00000000E+00  0.00000000E+00
  0.00000000E+00  0.00000000E+00  0.00000000E+00
  0.00000000E+00  0.00000000E+00  0.00000000E+00
  0.00000000E+00  0.00000000E+00  0.00000000E+00
  0.00000000E+00  0.00000000E+00  0.00000000E+00
  0.00000000E+00  0.00000000E+00  0.00000000E+00
  0.00000000E+00  0.00000000E+00  0.00000000E+00
  0.00000000E+00  0.00000000E+00  0.00000000E+00
  0.00000000E+00  0.00000000E+00  0.00000000E+00
  0.00000000E+00  0.00000000E+00  0.00000000E+00
  0.00000000E+00  0.00000000E+00  0.00000000E+00
  0.00000000E+00  0.00000000E+00  0.00000000E+00
