../1-ideal/perfect-sqs-32/POSCAR
1.0
7.320777 -0.114164 -0.144368
-0.018372 6.760713 0.100203
0.056730 0.216024 6.772048
Fe
32
direct
0.000626 0.998291 0.025532 Fe
0.516745 0.997335 0.977178 Fe
0.496023 0.036221 0.529797 Fe
0.475438 0.504062 0.010478 Fe
0.224081 0.763602 0.507985 Fe
0.780266 0.233756 0.518402 Fe
0.781069 0.777890 0.997814 Fe
0.775002 0.774878 0.503685 Fe
0.989600 0.775974 0.730951 Fe
0.475205 0.228496 0.776105 Fe
0.463470 0.766972 0.274543 Fe
0.532146 0.756186 0.761528 Fe
0.284556 0.506319 0.227103 Fe
0.776109 0.018710 0.288432 Fe
0.740093 0.472407 0.257648 Fe
0.770935 0.528368 0.750389 Fe
0.005937 0.988106 0.489833 Fe
0.007452 0.497105 0.008002 Fe
0.975848 0.502736 0.486974 Fe
0.528156 0.491315 0.508412 Fe
0.272269 0.213170 0.034963 Fe
0.228902 0.241903 0.509062 Fe
0.216212 0.769632 0.019164 Fe
0.717293 0.240021 0.973890 Fe
0.012725 0.244721 0.245678 Fe
0.011495 0.280397 0.721038 Fe
0.975432 0.732548 0.238131 Fe
0.498879 0.214980 0.272823 Fe
0.218148 0.987280 0.268235 Fe
0.280720 0.002858 0.724257 Fe
0.243094 0.528657 0.734963 Fe
0.737028 0.990071 0.738251 Fe
