../1-ideal/perfect-sqs-32/POSCAR
   1.00000000000000
     6.7368330965171062   -0.4891829725714180   -0.1998422009695070
    -0.0928970032712310    6.6557943979008662   -0.1915670729950690
     0.4248395785516000   -0.2195329685707840    6.9466827778583369
   Fe   Fe
    16    16
Direct
  0.0596208183599813  0.0489767710030691  0.9358734620944986
  0.4972954824815403  0.0129267280880327  0.9350616395178122
  0.4745567983446151  0.0046792708896533  0.5208690820573239
  0.5170481388743795  0.4325719905310095  0.9595467794258354
  0.1972394770061570  0.7642277223802267  0.5283467456288093
  0.7524731757546235  0.2603493515526409  0.4667129808450241
  0.8055504007512724  0.7716879865010782  0.9510099873561586
  0.7293158334757379  0.7233300659045057  0.5103131128540568
  0.9505718668968299  0.7246345074654954  0.7502967414586266
  0.4443010054663077  0.2378586708732016  0.7602870008825420
  0.5319715319061444  0.8149472442788195  0.2387773871428749
  0.5325033007346676  0.7315596758098906  0.8042591159994075
  0.2490909007568618  0.5677680926355748  0.3118591668559247
  0.7078880876663973  0.0445590001642913  0.2930965383940674
  0.7206986479563326  0.5376154562419870  0.2532191463296982
  0.7517556787384194  0.4671681303745530  0.7871797755801140
  0.9522119012540600  0.0037788865467192  0.4400838428843059
  0.0400056635703052  0.5255912570304915  0.0430907519635255
  0.9329048871581875  0.4851504091828645  0.4309524595322145
  0.4593977682841057  0.4994834920164024  0.4475615463785374
  0.2188744772810338  0.2283412726107485  0.0000210927257172
  0.2120615628826812  0.2441488602967610  0.4883358873185983
  0.2003242317266682  0.7702283480106829  0.0617259578148008
  0.7721534498566101  0.2341158757385955  0.9986693620774645
  0.0307291549970685  0.2338300357675536  0.2708407477179620
  0.9739155556489365  0.2646574916368394  0.7177105266206283
  0.9353666295178655  0.8147817700857871  0.1868916965794156
  0.4914211093091012  0.2837975077072272  0.2888222321299097
  0.2408940337290417  0.0610458800039737  0.2619883398318947
  0.2669576692765219  0.9529509197148869  0.7786718332217859
  0.2833947191477009  0.4594730882014417  0.7089118603533748
  0.7753205400499681  0.0411377343038026  0.8076076539804902

  0.00000000E+00  0.00000000E+00  0.00000000E+00
  0.00000000E+00  0.00000000E+00  0.00000000E+00
  0.00000000E+00  0.00000000E+00  0.00000000E+00
  0.00000000E+00  0.00000000E+00  0.00000000E+00
  0.00000000E+00  0.00000000E+00  0.00000000E+00
  0.00000000E+00  0.00000000E+00  0.00000000E+00
  0.00000000E+00  0.00000000E+00  0.00000000E+00
  0.00000000E+00  0.00000000E+00  0.00000000E+00
  0.00000000E+00  0.00000000E+00  0.00000000E+00
  0.00000000E+00  0.00000000E+00  0.00000000E+00
  0.00000000E+00  0.00000000E+00  0.00000000E+00
  0.00000000E+00  0.00000000E+00  0.00000000E+00
  0.00000000E+00  0.00000000E+00  0.00000000E+00
  0.00000000E+00  0.00000000E+00  0.00000000E+00
  0.00000000E+00  0.00000000E+00  0.00000000E+00
  0.00000000E+00  0.00000000E+00  0.00000000E+00
  0.00000000E+00  0.00000000E+00  0.00000000E+00
  0.00000000E+00  0.00000000E+00  0.00000000E+00
  0.00000000E+00  0.00000000E+00  0.00000000E+00
  0.00000000E+00  0.00000000E+00  0.00000000E+00
  0.00000000E+00  0.00000000E+00  0.00000000E+00
  0.00000000E+00  0.00000000E+00  0.00000000E+00
  0.00000000E+00  0.00000000E+00  0.00000000E+00
  0.00000000E+00  0.00000000E+00  0.00000000E+00
  0.00000000E+00  0.00000000E+00  0.00000000E+00
  0.00000000E+00  0.00000000E+00  0.00000000E+00
  0.00000000E+00  0.00000000E+00  0.00000000E+00
  0.00000000E+00  0.00000000E+00  0.00000000E+00
  0.00000000E+00  0.00000000E+00  0.00000000E+00
  0.00000000E+00  0.00000000E+00  0.00000000E+00
  0.00000000E+00  0.00000000E+00  0.00000000E+00
  0.00000000E+00  0.00000000E+00  0.00000000E+00
