../1-ideal/perfect-sqs-32/POSCAR
1.0
7.127978 -0.025044 0.014772
-0.031249 6.989497 -0.023803
0.017427 -0.020083 6.910915
Fe
32
direct
0.996625 0.999233 0.999118 Fe
0.497784 0.001797 0.996700 Fe
0.499319 0.002272 0.498973 Fe
0.497382 0.499975 0.997477 Fe
0.251373 0.748832 0.505137 Fe
0.751161 0.251545 0.499893 Fe
0.754078 0.750779 0.001253 Fe
0.753851 0.748758 0.502719 Fe
0.998573 0.750849 0.746081 Fe
0.498467 0.248099 0.753771 Fe
0.496453 0.750767 0.250397 Fe
0.498734 0.753338 0.746571 Fe
0.254630 0.499704 0.247603 Fe
0.750903 0.003462 0.251794 Fe
0.750138 0.499243 0.250916 Fe
0.751632 0.498735 0.750470 Fe
0.998128 0.998409 0.497220 Fe
0.996853 0.499092 0.001457 Fe
0.999298 0.502895 0.497849 Fe
0.497289 0.498595 0.500331 Fe
0.251908 0.247323 0.000891 Fe
0.251863 0.250833 0.498599 Fe
0.251300 0.751486 0.999909 Fe
0.754433 0.251959 0.003552 Fe
0.997317 0.250774 0.247243 Fe
0.997363 0.250024 0.752173 Fe
0.998911 0.746586 0.251272 Fe
0.498595 0.249533 0.247041 Fe
0.252902 0.999691 0.249738 Fe
0.250215 0.998379 0.750445 Fe
0.250163 0.503237 0.753159 Fe
0.753223 0.001202 0.747407 Fe
