../1-ideal/perfect-sqs-32/POSCAR
   1.00000000000000
     7.1291488305861819   -0.1641394823938630    0.0369821868605530
    -0.1267774092900490    6.9801263477186790    0.0785729985356800
    -0.1638147519869250   -0.0459157628198720    6.9162163095559146
   Fe   Fe
    16    16
Direct
  0.9729437266365011  0.0173798412612669  0.9741205053302266
  0.4850374238948305  0.0205206187195515  0.9755825138422693
  0.5039703397536357  0.0067066282664996  0.5273276268546780
  0.5123139350336814  0.5101353029559590  0.9878002730965605
  0.2293734333528263  0.7440252499298907  0.4773080005871861
  0.7312416393605048  0.2277316791534787  0.4956052908749484
  0.7766627245417155  0.7332357538834700  0.0028718998797004
  0.7560842128392835  0.7673939672311576  0.5233345558040341
  0.0112227342096887  0.7627207113898749  0.7453981641938583
  0.4880441149443513  0.2580281930497321  0.7515788886004700
  0.4823664655078730  0.7657196232101171  0.2258577280964360
  0.5005959260347908  0.7297876325810364  0.7636922292068817
  0.2642412309096969  0.5155130777980332  0.2349772950341844
  0.7551413158382090  0.0049614269341234  0.2602340947536703
  0.7639368585631487  0.4742210560105065  0.2270706559678715
  0.7323200813165869  0.4944372565755515  0.7426632177080066
  0.0088936858826898  0.9949373490334565  0.4894879818847286
  0.9914177292806272  0.5184448833974571  0.0182162873856058
  0.0178594047020511  0.4848343645788660  0.4866053898276306
  0.4885001140837133  0.4846541706007770  0.5183692653230239
  0.2376386741919561  0.2623656525946814  0.0143722335249947
  0.2499953130767665  0.2333360698552553  0.5075324835966128
  0.2635736211393720  0.7588214111232574  0.9880512167111846
  0.7548225384567502  0.2662966541910663  0.0089353261707217
  0.9742196272057555  0.2396480572765896  0.2519234855243155
  0.9855877470247520  0.2267172647845257  0.7568093368121609
  0.9766275036594507  0.7403685241693694  0.2505744074267682
  0.5003631927554295  0.2248486694857306  0.2279867737099792
  0.2498766363140703  0.9960609347845448  0.2517356269055711
  0.2326171855649406  0.0142393991711387  0.7518803259317295
  0.2340992288310133  0.5227519003248347  0.7622397965407330
  0.7573574092289945  0.9842181397436534  0.7284655375818119

  0.00000000E+00  0.00000000E+00  0.00000000E+00
  0.00000000E+00  0.00000000E+00  0.00000000E+00
  0.00000000E+00  0.00000000E+00  0.00000000E+00
  0.00000000E+00  0.00000000E+00  0.00000000E+00
  0.00000000E+00  0.00000000E+00  0.00000000E+00
  0.00000000E+00  0.00000000E+00  0.00000000E+00
  0.00000000E+00  0.00000000E+00  0.00000000E+00
  0.00000000E+00  0.00000000E+00  0.00000000E+00
  0.00000000E+00  0.00000000E+00  0.00000000E+00
  0.00000000E+00  0.00000000E+00  0.00000000E+00
  0.00000000E+00  0.00000000E+00  0.00000000E+00
  0.00000000E+00  0.00000000E+00  0.00000000E+00
  0.00000000E+00  0.00000000E+00  0.00000000E+00
  0.00000000E+00  0.00000000E+00  0.00000000E+00
  0.00000000E+00  0.00000000E+00  0.00000000E+00
  0.00000000E+00  0.00000000E+00  0.00000000E+00
  0.00000000E+00  0.00000000E+00  0.00000000E+00
  0.00000000E+00  0.00000000E+00  0.00000000E+00
  0.00000000E+00  0.00000000E+00  0.00000000E+00
  0.00000000E+00  0.00000000E+00  0.00000000E+00
  0.00000000E+00  0.00000000E+00  0.00000000E+00
  0.00000000E+00  0.00000000E+00  0.00000000E+00
  0.00000000E+00  0.00000000E+00  0.00000000E+00
  0.00000000E+00  0.00000000E+00  0.00000000E+00
  0.00000000E+00  0.00000000E+00  0.00000000E+00
  0.00000000E+00  0.00000000E+00  0.00000000E+00
  0.00000000E+00  0.00000000E+00  0.00000000E+00
  0.00000000E+00  0.00000000E+00  0.00000000E+00
  0.00000000E+00  0.00000000E+00  0.00000000E+00
  0.00000000E+00  0.00000000E+00  0.00000000E+00
  0.00000000E+00  0.00000000E+00  0.00000000E+00
  0.00000000E+00  0.00000000E+00  0.00000000E+00
