../1-ideal/perfect-sqs-32/POSCAR
1.0
6.953891 0.008677 0.159096
0.092456 7.233136 0.137577
-0.194945 0.019585 6.719164
Fe
32
direct
0.988699 0.005534 0.027550 Fe
0.524254 0.002528 0.991403 Fe
0.516185 0.026775 0.509989 Fe
0.491386 0.523144 0.993263 Fe
0.273143 0.747491 0.489104 Fe
0.767381 0.280925 0.509249 Fe
0.785379 0.761058 0.997381 Fe
0.769986 0.769317 0.479783 Fe
0.003489 0.730435 0.774935 Fe
0.482799 0.248995 0.719062 Fe
0.474392 0.724719 0.251627 Fe
0.523022 0.722640 0.778153 Fe
0.272490 0.517016 0.275728 Fe
0.781675 0.988268 0.284842 Fe
0.726552 0.529017 0.259351 Fe
0.746273 0.512363 0.724344 Fe
0.998448 0.994266 0.475508 Fe
0.993808 0.504188 0.999158 Fe
0.030581 0.511016 0.513056 Fe
0.489087 0.479415 0.527186 Fe
0.244258 0.276293 0.013291 Fe
0.269991 0.230361 0.476458 Fe
0.219353 0.771700 0.026135 Fe
0.737531 0.224699 0.972096 Fe
0.030369 0.280577 0.232805 Fe
0.987348 0.226883 0.753086 Fe
0.032196 0.762068 0.233509 Fe
0.502379 0.242704 0.224614 Fe
0.229692 0.023992 0.226881 Fe
0.227192 0.005697 0.745655 Fe
0.221363 0.482584 0.742182 Fe
0.753629 0.972668 0.742808 Fe
