../1-ideal/perfect-sqs-32/POSCAR
1.0
7.035441 -0.093560 0.006977
0.024452 6.966214 -0.031400
-0.008519 0.033179 6.870323
Fe
32
direct
0.997346 0.990794 0.990441 Fe
0.510454 0.999184 0.995550 Fe
0.499413 0.993827 0.492373 Fe
0.499463 0.508097 0.997310 Fe
0.249154 0.739085 0.491391 Fe
0.754388 0.252455 0.497038 Fe
0.757338 0.753201 0.994057 Fe
0.763689 0.755989 0.506200 Fe
0.999508 0.746950 0.737031 Fe
0.495482 0.252683 0.741969 Fe
0.489985 0.745270 0.260833 Fe
0.494185 0.743735 0.748788 Fe
0.242928 0.513047 0.258311 Fe
0.763591 0.003513 0.254220 Fe
0.754276 0.485763 0.251872 Fe
0.751938 0.494491 0.737479 Fe
0.999471 0.006440 0.490675 Fe
0.006555 0.491569 0.999827 Fe
0.002925 0.490940 0.496975 Fe
0.489470 0.496505 0.495394 Fe
0.240774 0.249025 0.013120 Fe
0.254160 0.258835 0.492061 Fe
0.257086 0.745623 0.002035 Fe
0.750679 0.245154 0.991522 Fe
0.006662 0.246950 0.254789 Fe
0.991890 0.246357 0.756240 Fe
0.005872 0.750294 0.257766 Fe
0.504678 0.244498 0.239068 Fe
0.258425 0.007399 0.255998 Fe
0.258983 0.994696 0.763032 Fe
0.247689 0.491448 0.756656 Fe
0.756245 0.994564 0.756755 Fe
