../1-ideal/perfect-sqs-32/POSCAR
   1.00000000000000
     6.9051795112035581    0.0540299084730320    0.2138450934594140
     0.2602508142462820    6.8073168215994171   -0.2630862685787440
     0.3289010738715230   -0.1471276114541310    7.1630598630009894
   Fe   Fe
    16    16
Direct
  0.0456687738529453  0.9630334653782882  0.9553619268854021
  0.4764486206307055  0.0488399096146708  0.9710858585769486
  0.5352332531364894  0.0410099277376546  0.5180322983955037
  0.4976262297743759  0.4804387939557913  0.9967435479029660
  0.2896176377331230  0.7008105002779104  0.5317489599006464
  0.7150031728999764  0.1944839848001649  0.4938188520378475
  0.7246913117009441  0.7540636306471526  0.9876009839846134
  0.6981640256042709  0.7249389396396566  0.4628435376265259
  0.0522557995786315  0.7072498190802889  0.7768361770576462
  0.4715134843285966  0.2946347141207184  0.7573075527171227
  0.4412728886046651  0.7420530739902276  0.2560199555495331
  0.5121459763323131  0.7134154765916776  0.7268995764545778
  0.3084125393672608  0.5107375224026711  0.3064224216801463
  0.7974764738182927  0.0214493469428447  0.3086981240850406
  0.7181030879787826  0.5063427030489720  0.2748396398529422
  0.7584385901590167  0.5153356198306369  0.7937280371777646
  0.0268383108131474  0.9442697158290514  0.4825426465664506
  0.0313415594366546  0.5300071878657064  0.9825062251381524
  0.0124093331115986  0.5417491001681753  0.5255856630049607
  0.5010504757294285  0.5469692343852017  0.5107272099491382
  0.1976490616535500  0.1960692225858054  0.0221878310603714
  0.2270325709219065  0.2056969673951841  0.5065514374852995
  0.3030184862821912  0.7978821535787617  0.0084811539760494
  0.7476865774031438  0.2656354916329633  0.9548126660071361
  0.9889715158891335  0.2770375626559343  0.2626819388315482
  0.0351063791690365  0.2055015940312686  0.7073502792499582
  0.0172982367457521  0.7651840874114271  0.3015720415986110
  0.4507409010096524  0.2716550455840832  0.2973230980718000
  0.3035576406916292  0.0073690101739885  0.2819077146070370
  0.2274623613011926  0.0263099573624217  0.7699420482751975
  0.2894526593014106  0.4973993996276320  0.7272725555524815
  0.7196199797301759  0.0124471435074014  0.7669669195775057

  0.00000000E+00  0.00000000E+00  0.00000000E+00
  0.00000000E+00  0.00000000E+00  0.00000000E+00
  0.00000000E+00  0.00000000E+00  0.00000000E+00
  0.00000000E+00  0.00000000E+00  0.00000000E+00
  0.00000000E+00  0.00000000E+00  0.00000000E+00
  0.00000000E+00  0.00000000E+00  0.00000000E+00
  0.00000000E+00  0.00000000E+00  0.00000000E+00
  0.00000000E+00  0.00000000E+00  0.00000000E+00
  0.00000000E+00  0.00000000E+00  0.00000000E+00
  0.00000000E+00  0.00000000E+00  0.00000000E+00
  0.00000000E+00  0.00000000E+00  0.00000000E+00
  0.00000000E+00  0.00000000E+00  0.00000000E+00
  0.00000000E+00  0.00000000E+00  0.00000000E+00
  0.00000000E+00  0.00000000E+00  0.00000000E+00
  0.00000000E+00  0.00000000E+00  0.00000000E+00
  0.00000000E+00  0.00000000E+00  0.00000000E+00
  0.00000000E+00  0.00000000E+00  0.00000000E+00
  0.00000000E+00  0.00000000E+00  0.00000000E+00
  0.00000000E+00  0.00000000E+00  0.00000000E+00
  0.00000000E+00  0.00000000E+00  0.00000000E+00
  0.00000000E+00  0.00000000E+00  0.00000000E+00
  0.00000000E+00  0.00000000E+00  0.00000000E+00
  0.00000000E+00  0.00000000E+00  0.00000000E+00
  0.00000000E+00  0.00000000E+00  0.00000000E+00
  0.00000000E+00  0.00000000E+00  0.00000000E+00
  0.00000000E+00  0.00000000E+00  0.00000000E+00
  0.00000000E+00  0.00000000E+00  0.00000000E+00
  0.00000000E+00  0.00000000E+00  0.00000000E+00
  0.00000000E+00  0.00000000E+00  0.00000000E+00
  0.00000000E+00  0.00000000E+00  0.00000000E+00
  0.00000000E+00  0.00000000E+00  0.00000000E+00
  0.00000000E+00  0.00000000E+00  0.00000000E+00
