../1-ideal/perfect-sqs-32/POSCAR
   1.00000000000000
     7.2630617293344466   -0.2292869723887050   -0.0924280327577570
    -0.2493432838369690    6.9302760752789494   -0.1093002210729390
    -0.0078405505088090   -0.2026625785496150    6.9981333658082390
   Fe   Fe
    16    16
Direct
  0.0247353078164281  0.0002862692324044  0.0074070240477866
  0.4792550315457547  0.9876268801272658  0.9949413887819532
  0.4830110935512906  0.9848359419109372  0.5258418398195559
  0.4682728329219046  0.4725762842406027  0.9993847837587637
  0.2567836932776686  0.7537494831966711  0.4953469789766771
  0.7724329008343815  0.2199501161736066  0.5002902740476785
  0.7537226309202794  0.7324823429204983  0.0233317605762835
  0.7462501754343052  0.7200523674001715  0.4726698308958532
  0.0247481902855284  0.7176581801850190  0.7143050489946106
  0.4819790926225878  0.2304794446337510  0.7284433512279591
  0.5266829237627064  0.7789394073675311  0.2479172187613585
  0.4871573658631618  0.7495152292857838  0.7711118080379293
  0.2313735331136328  0.5281779752551898  0.2262277981523937
  0.7798079474826238  0.0068138817966101  0.2496107427339496
  0.7766718634900940  0.5023101161485997  0.2527059539632006
  0.7517701102571834  0.4710333635563799  0.7322705892346235
  0.0186893236808814  0.9998892266094117  0.4741144608968852
  0.0213755418999568  0.4729107607555534  0.9936840047460862
  0.0228408063769336  0.5219483694655764  0.4909925917087676
  0.5068040991917258  0.4934619958287669  0.5209571805552997
  0.2286818670757995  0.2637935809336796  0.9946361488535373
  0.2811370719246469  0.2436359629511458  0.5269629490486096
  0.2491480462884184  0.7346730970420268  0.9844366521576475
  0.7309032223573695  0.2403740813280066  0.9746677432650159
  0.9860712045865583  0.2497024280039994  0.2341047931834623
  0.0011708249386970  0.2403303696933961  0.7774172807960085
  0.0215314437192049  0.7603390300059090  0.2196480716367688
  0.4715327447730147  0.2245034410861706  0.2122932120306729
  0.2268350499721734  0.9870417724498068  0.2659373715143403
  0.2605639793379950  0.0219256860208574  0.7768290728117719
  0.2306150934038200  0.5297054913794952  0.7320012712597261
  0.7240022201915153  0.9995156518030015  0.7738584023190782

  0.00000000E+00  0.00000000E+00  0.00000000E+00
  0.00000000E+00  0.00000000E+00  0.00000000E+00
  0.00000000E+00  0.00000000E+00  0.00000000E+00
  0.00000000E+00  0.00000000E+00  0.00000000E+00
  0.00000000E+00  0.00000000E+00  0.00000000E+00
  0.00000000E+00  0.00000000E+00  0.00000000E+00
  0.00000000E+00  0.00000000E+00  0.00000000E+00
  0.00000000E+00  0.00000000E+00  0.00000000E+00
  0.00000000E+00  0.00000000E+00  0.00000000E+00
  0.00000000E+00  0.00000000E+00  0.00000000E+00
  0.00000000E+00  0.00000000E+00  0.00000000E+00
  0.00000000E+00  0.00000000E+00  0.00000000E+00
  0.00000000E+00  0.00000000E+00  0.00000000E+00
  0.00000000E+00  0.00000000E+00  0.00000000E+00
  0.00000000E+00  0.00000000E+00  0.00000000E+00
  0.00000000E+00  0.00000000E+00  0.00000000E+00
  0.00000000E+00  0.00000000E+00  0.00000000E+00
  0.00000000E+00  0.00000000E+00  0.00000000E+00
  0.00000000E+00  0.00000000E+00  0.00000000E+00
  0.00000000E+00  0.00000000E+00  0.00000000E+00
  0.00000000E+00  0.00000000E+00  0.00000000E+00
  0.00000000E+00  0.00000000E+00  0.00000000E+00
  0.00000000E+00  0.00000000E+00  0.00000000E+00
  0.00000000E+00  0.00000000E+00  0.00000000E+00
  0.00000000E+00  0.00000000E+00  0.00000000E+00
  0.00000000E+00  0.00000000E+00  0.00000000E+00
  0.00000000E+00  0.00000000E+00  0.00000000E+00
  0.00000000E+00  0.00000000E+00  0.00000000E+00
  0.00000000E+00  0.00000000E+00  0.00000000E+00
  0.00000000E+00  0.00000000E+00  0.00000000E+00
  0.00000000E+00  0.00000000E+00  0.00000000E+00
  0.00000000E+00  0.00000000E+00  0.00000000E+00
