../1-ideal/perfect-sqs-32/POSCAR
1.0
7.068202 0.248587 -0.389812
0.024897 6.668121 -0.008514
0.408581 -0.183825 7.194288
Fe
32
direct
0.026229 0.043271 0.949013 Fe
0.474409 0.052795 0.944949 Fe
0.444033 0.005235 0.472611 Fe
0.464118 0.487446 0.042036 Fe
0.252896 0.766196 0.525734 Fe
0.761076 0.280948 0.501325 Fe
0.784123 0.721033 0.999087 Fe
0.711629 0.743623 0.454526 Fe
0.032853 0.782698 0.744298 Fe
0.536536 0.214676 0.757659 Fe
0.506810 0.752537 0.257965 Fe
0.461471 0.695559 0.763142 Fe
0.226868 0.519243 0.283946 Fe
0.728860 0.016790 0.272080 Fe
0.712688 0.452996 0.200344 Fe
0.764771 0.502731 0.768013 Fe
0.987899 0.950359 0.527685 Fe
0.976044 0.474393 0.015679 Fe
0.968850 0.453496 0.455904 Fe
0.511928 0.440519 0.526306 Fe
0.209088 0.228330 0.046045 Fe
0.212572 0.293582 0.485076 Fe
0.293404 0.725466 0.040909 Fe
0.779266 0.209322 0.960814 Fe
0.998139 0.245187 0.251125 Fe
0.963660 0.294265 0.786695 Fe
0.979077 0.776137 0.302178 Fe
0.554074 0.229438 0.195951 Fe
0.286589 0.048762 0.195172 Fe
0.221458 0.003539 0.736970 Fe
0.278340 0.498908 0.783063 Fe
0.704409 0.982495 0.749158 Fe
