../1-ideal/perfect-sqs-32/POSCAR
1.0
7.027681 -0.043753 -0.050312
-0.091484 7.071019 -0.062785
0.009833 0.034191 6.861097
Fe
32
direct
0.997603 0.010486 0.988933 Fe
0.494603 0.002182 0.008705 Fe
0.508095 0.990883 0.500023 Fe
0.505458 0.489406 0.005912 Fe
0.245465 0.748250 0.502802 Fe
0.739680 0.246973 0.510134 Fe
0.765932 0.743561 0.995723 Fe
0.741255 0.753311 0.505084 Fe
0.008310 0.737721 0.743556 Fe
0.500460 0.243094 0.758501 Fe
0.506430 0.748873 0.253615 Fe
0.501877 0.755625 0.751334 Fe
0.249161 0.494820 0.259399 Fe
0.743371 0.991568 0.262986 Fe
0.756186 0.493078 0.254314 Fe
0.742429 0.502150 0.747192 Fe
0.997248 0.007669 0.503182 Fe
0.998764 0.510106 0.998960 Fe
0.002063 0.508291 0.487211 Fe
0.485643 0.486900 0.502997 Fe
0.247200 0.240951 0.004200 Fe
0.249146 0.238038 0.497225 Fe
0.251741 0.743945 0.006083 Fe
0.749464 0.256228 0.993578 Fe
0.003033 0.254348 0.242117 Fe
0.994244 0.251542 0.762227 Fe
0.990027 0.746686 0.262566 Fe
0.497586 0.257559 0.242267 Fe
0.250759 0.988979 0.257462 Fe
0.255068 0.006207 0.740451 Fe
0.247233 0.489271 0.754107 Fe
0.765042 0.012826 0.745212 Fe
