../1-ideal/perfect-sqs-32/POSCAR
   1.00000000000000
     7.1256257662832496   -0.0385087114911250    0.0247249458200310
    -0.0319256193765990    6.9768577380653376    0.0041301226561160
     0.0349914807128940   -0.0380738162593710    6.8961959761603344
   Fe   Fe
    16    16
Direct
  0.9925459157409620  0.9996519514768210  0.0004785520568333
  0.4996884917510869  0.0040027259214881  0.9967714388189108
  0.4937898641779128  0.0047760641366281  0.5009352084584435
  0.5010060683114190  0.4992540525390936  0.9947722338109202
  0.2513163074983424  0.7531013054213176  0.5072826755793471
  0.7462022050439145  0.2528806258045861  0.4970089842701171
  0.7528826547261787  0.7451656641761133  0.0009910744799981
  0.7565178388181835  0.7505853854371054  0.5046973748544872
  0.9990019641201471  0.7456285869640737  0.7425664596584340
  0.5035176312277585  0.2490979114098977  0.7527875782269433
  0.4972894949561066  0.7550375680031820  0.2519932583635480
  0.4963745550143557  0.7547475060588766  0.7469195529932691
  0.2571122561996972  0.5004947104951754  0.2524029063625051
  0.7505876353057914  0.0007467159773142  0.2532195701483531
  0.7493869016989549  0.4989183867033375  0.2477855593150693
  0.7488332335718866  0.4989596519530863  0.7485932960143060
  0.9975150757514086  0.0018206265326413  0.4954667244459401
  0.9991375798387807  0.5008918417577490  0.9977826433626404
  0.9966669036095084  0.5028769477249284  0.4966800020314182
  0.4934034203246824  0.4950013374034938  0.5002753322495224
  0.2553615583768476  0.2455091176561481  0.9986019382847218
  0.2579411376715868  0.2454837345848944  0.5031370731936704
  0.2486140712879177  0.7520919434108038  0.0016538710311735
  0.7524546996984967  0.2484607471997862  0.0048644704251970
  0.9950396273731670  0.2512586639381240  0.2467518392096153
  0.9971679174662285  0.2489187375650985  0.7547422020243530
  0.9999786569666682  0.7491235643516063  0.2533218444485712
  0.4962254914714066  0.2463409979281082  0.2451464687808382
  0.2508518608358727  0.9954796487308073  0.2455829644077667
  0.2530769453852599  0.9992879764731910  0.7516081196916886
  0.2505970361819791  0.5048248914089299  0.7548073457863751
  0.7516788709395428  0.9974448318632980  0.7536003848772737

  0.00000000E+00  0.00000000E+00  0.00000000E+00
  0.00000000E+00  0.00000000E+00  0.00000000E+00
  0.00000000E+00  0.00000000E+00  0.00000000E+00
  0.00000000E+00  0.00000000E+00  0.00000000E+00
  0.00000000E+00  0.00000000E+00  0.00000000E+00
  0.00000000E+00  0.00000000E+00  0.00000000E+00
  0.00000000E+00  0.00000000E+00  0.00000000E+00
  0.00000000E+00  0.00000000E+00  0.00000000E+00
  0.00000000E+00  0.00000000E+00  0.00000000E+00
  0.00000000E+00  0.00000000E+00  0.00000000E+00
  0.00000000E+00  0.00000000E+00  0.00000000E+00
  0.00000000E+00  0.00000000E+00  0.00000000E+00
  0.00000000E+00  0.00000000E+00  0.00000000E+00
  0.00000000E+00  0.00000000E+00  0.00000000E+00
  0.00000000E+00  0.00000000E+00  0.00000000E+00
  0.00000000E+00  0.00000000E+00  0.00000000E+00
  0.00000000E+00  0.00000000E+00  0.00000000E+00
  0.00000000E+00  0.00000000E+00  0.00000000E+00
  0.00000000E+00  0.00000000E+00  0.00000000E+00
  0.00000000E+00  0.00000000E+00  0.00000000E+00
  0.00000000E+00  0.00000000E+00  0.00000000E+00
  0.00000000E+00  0.00000000E+00  0.00000000E+00
  0.00000000E+00  0.00000000E+00  0.00000000E+00
  0.00000000E+00  0.00000000E+00  0.00000000E+00
  0.00000000E+00  0.00000000E+00  0.00000000E+00
  0.00000000E+00  0.00000000E+00  0.00000000E+00
  0.00000000E+00  0.00000000E+00  0.00000000E+00
  0.00000000E+00  0.00000000E+00  0.00000000E+00
  0.00000000E+00  0.00000000E+00  0.00000000E+00
  0.00000000E+00  0.00000000E+00  0.00000000E+00
  0.00000000E+00  0.00000000E+00  0.00000000E+00
  0.00000000E+00  0.00000000E+00  0.00000000E+00
