../1-ideal/perfect-sqs-32/POSCAR
   1.00000000000000
     7.2489443160585321   -0.0248573712103380    0.0616816826170920
    -0.1288676376585430    6.8787250282209964    0.1234394014727370
    -0.0032965836542320    0.0725360568662880    7.0883113834010461
   Fe   Fe
    16    16
Direct
  0.9782016313041737  0.9794251141734733  0.0214353797094162
  0.4774767023212476  0.9971039137153497  0.0131684108413168
  0.4753118847029185  0.9923587121644815  0.5182739407256634
  0.4857351389714708  0.4769362006926414  0.9869455974543655
  0.2540533270496397  0.7761805715214081  0.4946134577336636
  0.7385420822292019  0.2535776787762174  0.5202074471009723
  0.7428759259456115  0.7700417527379386  0.0203642166276552
  0.7548666573613190  0.7438126676185774  0.5220968219535962
  0.9901682553516906  0.7684921450282829  0.7506528611615053
  0.5137966213056728  0.2286764522567921  0.7257549157531642
  0.4872462288870452  0.7257207048394321  0.2311179741748859
  0.4788798121821927  0.7413071796332957  0.7566514233220474
  0.2765448759892593  0.4782331060831808  0.2280332235127673
  0.7492094662592663  0.9920163375499058  0.2327181754361973
  0.7616774555466108  0.5036213597140389  0.2671452884194707
  0.7651347948884890  0.4868585978234279  0.7359677047732376
  0.9789775102819860  0.9974128728187992  0.4798783270751557
  0.0028623797289526  0.5026302261380522  0.9787149318365991
  0.9802111451844482  0.4945110944944204  0.4924849917162248
  0.4938750730240997  0.4942973566460509  0.4825832695359580
  0.2306768116004179  0.2658004830174292  0.0219258380087339
  0.2736278287216365  0.2497503879826368  0.4925369831366453
  0.2721423995563654  0.7366820638466933  0.0039477679650233
  0.7763874628765635  0.2389797801859714  0.0056386291431210
  0.9822297623644047  0.2467489094732969  0.2410863306733475
  0.0107552689394979  0.2542477241926520  0.7573442937310944
  0.9897435600216440  0.7724528629313951  0.2480414604047425
  0.4977881764420786  0.2480646081317346  0.2615633351736406
  0.2725947635889128  0.9845501440015525  0.2247700680043039
  0.2557921331180211  0.0128234127398557  0.7359717051391996
  0.2388582020624241  0.5185485890610408  0.7663446809795715
  0.7622970300379350  0.0063339981491879  0.7338821942758784

  0.00000000E+00  0.00000000E+00  0.00000000E+00
  0.00000000E+00  0.00000000E+00  0.00000000E+00
  0.00000000E+00  0.00000000E+00  0.00000000E+00
  0.00000000E+00  0.00000000E+00  0.00000000E+00
  0.00000000E+00  0.00000000E+00  0.00000000E+00
  0.00000000E+00  0.00000000E+00  0.00000000E+00
  0.00000000E+00  0.00000000E+00  0.00000000E+00
  0.00000000E+00  0.00000000E+00  0.00000000E+00
  0.00000000E+00  0.00000000E+00  0.00000000E+00
  0.00000000E+00  0.00000000E+00  0.00000000E+00
  0.00000000E+00  0.00000000E+00  0.00000000E+00
  0.00000000E+00  0.00000000E+00  0.00000000E+00
  0.00000000E+00  0.00000000E+00  0.00000000E+00
  0.00000000E+00  0.00000000E+00  0.00000000E+00
  0.00000000E+00  0.00000000E+00  0.00000000E+00
  0.00000000E+00  0.00000000E+00  0.00000000E+00
  0.00000000E+00  0.00000000E+00  0.00000000E+00
  0.00000000E+00  0.00000000E+00  0.00000000E+00
  0.00000000E+00  0.00000000E+00  0.00000000E+00
  0.00000000E+00  0.00000000E+00  0.00000000E+00
  0.00000000E+00  0.00000000E+00  0.00000000E+00
  0.00000000E+00  0.00000000E+00  0.00000000E+00
  0.00000000E+00  0.00000000E+00  0.00000000E+00
  0.00000000E+00  0.00000000E+00  0.00000000E+00
  0.00000000E+00  0.00000000E+00  0.00000000E+00
  0.00000000E+00  0.00000000E+00  0.00000000E+00
  0.00000000E+00  0.00000000E+00  0.00000000E+00
  0.00000000E+00  0.00000000E+00  0.00000000E+00
  0.00000000E+00  0.00000000E+00  0.00000000E+00
  0.00000000E+00  0.00000000E+00  0.00000000E+00
  0.00000000E+00  0.00000000E+00  0.00000000E+00
  0.00000000E+00  0.00000000E+00  0.00000000E+00
