../1-ideal/perfect-sqs-32/POSCAR
1.0
7.126214 -0.040150 0.040184
0.001220 7.008739 -0.020094
0.025156 -0.038726 6.899517
Fe
32
direct
0.994564 0.001831 0.997470 Fe
0.497913 0.002103 0.996103 Fe
0.496079 0.998638 0.504169 Fe
0.497782 0.502170 0.997522 Fe
0.252919 0.750534 0.507301 Fe
0.749021 0.253219 0.494645 Fe
0.756449 0.751364 0.001284 Fe
0.750878 0.747272 0.501345 Fe
0.996262 0.746542 0.742716 Fe
0.497163 0.250712 0.755391 Fe
0.495060 0.753406 0.252673 Fe
0.498812 0.754240 0.746800 Fe
0.253808 0.501311 0.248020 Fe
0.751347 0.000748 0.249919 Fe
0.748301 0.499561 0.249531 Fe
0.749634 0.497375 0.749075 Fe
0.998737 0.000931 0.497450 Fe
0.994203 0.503164 0.001924 Fe
0.995304 0.501298 0.499917 Fe
0.495837 0.501108 0.500126 Fe
0.253698 0.250228 0.002989 Fe
0.255304 0.252241 0.496776 Fe
0.252726 0.750702 0.999752 Fe
0.755377 0.252148 0.005902 Fe
0.998885 0.253313 0.249570 Fe
0.998589 0.254087 0.749229 Fe
0.998771 0.751271 0.253304 Fe
0.493931 0.251489 0.247312 Fe
0.254496 0.999743 0.247503 Fe
0.252484 0.997316 0.754883 Fe
0.255389 0.504396 0.755588 Fe
0.751287 0.998362 0.747426 Fe
