../1-ideal/perfect-sqs-32/POSCAR
1.0
6.896057 -0.118044 0.005140
0.297167 6.669961 0.095728
-0.129342 0.015981 6.598849
Fe
32
direct
0.975915 0.047257 0.958466 Fe
0.451730 0.999206 0.024876 Fe
0.534543 0.018571 0.471940 Fe
0.513703 0.533107 0.003053 Fe
0.286885 0.710956 0.533161 Fe
0.739812 0.204759 0.501844 Fe
0.706307 0.761255 0.986533 Fe
0.760356 0.746683 0.493958 Fe
0.979993 0.704905 0.769417 Fe
0.474892 0.203137 0.751598 Fe
0.459272 0.770132 0.214591 Fe
0.537476 0.799644 0.698921 Fe
0.257512 0.486657 0.244093 Fe
0.754976 0.043938 0.271523 Fe
0.727820 0.512576 0.253108 Fe
0.714167 0.466927 0.712689 Fe
0.960994 0.968299 0.465928 Fe
0.029667 0.548002 0.973103 Fe
0.985210 0.534823 0.509609 Fe
0.513696 0.457890 0.484430 Fe
0.204322 0.293075 0.977742 Fe
0.301659 0.257834 0.511891 Fe
0.217806 0.783695 0.975479 Fe
0.783296 0.223689 0.971061 Fe
0.999800 0.284306 0.289279 Fe
0.018037 0.251217 0.750996 Fe
0.956218 0.766708 0.227387 Fe
0.501554 0.230467 0.214142 Fe
0.215623 0.954131 0.226517 Fe
0.287288 0.967789 0.740708 Fe
0.268831 0.475247 0.798316 Fe
0.748723 0.002945 0.796702 Fe
