../1-ideal/perfect-sqs-32/POSCAR
   1.00000000000000
     7.1865142987874302   -0.0176876438658880   -0.0381429410890900
    -0.0528677829887310    6.8770023205799840   -0.0409092851977560
    -0.0989499887095420    0.0285944168609710    6.9564679017463540
   Fe   Fe
    16    16
Direct
  0.9847460610859926  0.0013139683993870  0.9972816542254748
  0.4825583796568083  0.0193292894902868  0.0033471152983040
  0.4983026672988800  0.9843074174758257  0.4882024077254528
  0.4967145248408542  0.5041081874832827  0.0078085196735742
  0.2573248413822355  0.7397085083858315  0.5147218657353392
  0.7561244828230471  0.2456448589078235  0.4875976210651203
  0.7421782945958810  0.7559503060105399  0.9933117172545209
  0.7422204981858798  0.7496673589648353  0.4901905894488365
  0.9854172200891185  0.7531272531741351  0.7550349500729041
  0.4877141016479314  0.2321314301270547  0.7440240888750580
  0.5038176291556979  0.7691411072163490  0.2560650501892567
  0.4808895096016528  0.7412036876094632  0.7506213021645962
  0.2490174340411286  0.4940423091154216  0.2578965680742158
  0.7648730873695797  0.9878430932967746  0.2652562983989313
  0.7371869648546792  0.4794941390061140  0.2588186976716642
  0.7350278371796151  0.4832519998595899  0.7643221885745888
  0.0130173835127039  0.0167305976803078  0.5116741372332854
  0.0001261106324790  0.4930268611785564  0.9958928974549366
  0.9808940642554518  0.5150926494204526  0.5115499668892127
  0.4905495101019568  0.5104945794792712  0.5168746114366272
  0.2405957707677970  0.2509548931480410  0.0107636076347646
  0.2482245782354440  0.2549216051019627  0.4820809005449505
  0.2554643128985035  0.7442446936113001  0.0039928159418565
  0.7400596604741736  0.2517339832584327  0.0002190205003743
  0.0136254653857790  0.2430064154358291  0.2448833901025367
  0.9995006444858774  0.2673084268469594  0.7644892792390152
  0.0052519815344496  0.7365571867434113  0.2531564060334404
  0.5037310520849303  0.2459202399603484  0.2522398691202525
  0.2401758025705263  0.0071504472535224  0.2412698965169895
  0.2363055490589971  0.9937947062077086  0.7495049310881683
  0.2582186812924192  0.5183040143201367  0.7581539848418615
  0.7677054034334603  0.0153220024003247  0.7634198518665585

  0.00000000E+00  0.00000000E+00  0.00000000E+00
  0.00000000E+00  0.00000000E+00  0.00000000E+00
  0.00000000E+00  0.00000000E+00  0.00000000E+00
  0.00000000E+00  0.00000000E+00  0.00000000E+00
  0.00000000E+00  0.00000000E+00  0.00000000E+00
  0.00000000E+00  0.00000000E+00  0.00000000E+00
  0.00000000E+00  0.00000000E+00  0.00000000E+00
  0.00000000E+00  0.00000000E+00  0.00000000E+00
  0.00000000E+00  0.00000000E+00  0.00000000E+00
  0.00000000E+00  0.00000000E+00  0.00000000E+00
  0.00000000E+00  0.00000000E+00  0.00000000E+00
  0.00000000E+00  0.00000000E+00  0.00000000E+00
  0.00000000E+00  0.00000000E+00  0.00000000E+00
  0.00000000E+00  0.00000000E+00  0.00000000E+00
  0.00000000E+00  0.00000000E+00  0.00000000E+00
  0.00000000E+00  0.00000000E+00  0.00000000E+00
  0.00000000E+00  0.00000000E+00  0.00000000E+00
  0.00000000E+00  0.00000000E+00  0.00000000E+00
  0.00000000E+00  0.00000000E+00  0.00000000E+00
  0.00000000E+00  0.00000000E+00  0.00000000E+00
  0.00000000E+00  0.00000000E+00  0.00000000E+00
  0.00000000E+00  0.00000000E+00  0.00000000E+00
  0.00000000E+00  0.00000000E+00  0.00000000E+00
  0.00000000E+00  0.00000000E+00  0.00000000E+00
  0.00000000E+00  0.00000000E+00  0.00000000E+00
  0.00000000E+00  0.00000000E+00  0.00000000E+00
  0.00000000E+00  0.00000000E+00  0.00000000E+00
  0.00000000E+00  0.00000000E+00  0.00000000E+00
  0.00000000E+00  0.00000000E+00  0.00000000E+00
  0.00000000E+00  0.00000000E+00  0.00000000E+00
  0.00000000E+00  0.00000000E+00  0.00000000E+00
  0.00000000E+00  0.00000000E+00  0.00000000E+00
