../1-ideal/perfect-sqs-32/POSCAR
1.0
6.864044 -0.155979 0.004724
-0.093598 7.222692 -0.102614
-0.158462 0.015737 7.236777
Fe
32
direct
0.985625 0.965677 0.012517 Fe
0.493004 0.025608 0.974277 Fe
0.514476 0.000659 0.473214 Fe
0.453796 0.455491 0.017128 Fe
0.228235 0.783331 0.542451 Fe
0.723548 0.286916 0.499276 Fe
0.798066 0.781540 0.012189 Fe
0.795257 0.730939 0.545194 Fe
0.964241 0.704250 0.743332 Fe
0.511958 0.260389 0.784827 Fe
0.482266 0.751237 0.282363 Fe
0.537400 0.706922 0.720652 Fe
0.217831 0.541644 0.279145 Fe
0.751656 0.018206 0.257075 Fe
0.731447 0.478092 0.220621 Fe
0.708529 0.462517 0.745790 Fe
0.983956 0.972438 0.512713 Fe
0.004301 0.515784 0.001542 Fe
0.963284 0.531153 0.511438 Fe
0.452845 0.516958 0.454883 Fe
0.231513 0.239973 0.982633 Fe
0.285512 0.244868 0.462197 Fe
0.241093 0.764023 0.952085 Fe
0.754363 0.277219 0.040057 Fe
0.984777 0.259655 0.289658 Fe
0.953224 0.286181 0.750722 Fe
0.042502 0.765226 0.285532 Fe
0.504619 0.272911 0.214300 Fe
0.227350 0.024583 0.282384 Fe
0.222032 0.960282 0.786822 Fe
0.252324 0.503856 0.786067 Fe
0.754170 0.011437 0.774616 Fe
