../1-ideal/perfect-sqs-32/POSCAR
1.0
7.114975 -0.021371 0.019134
-0.021426 6.997406 -0.013800
0.019726 -0.012550 6.921330
Fe
32
direct
0.995363 0.998228 0.000317 Fe
0.498393 0.002231 0.998798 Fe
0.497852 0.000765 0.500611 Fe
0.498142 0.498442 0.997731 Fe
0.252618 0.750647 0.503921 Fe
0.750106 0.251903 0.497825 Fe
0.753777 0.748588 0.999417 Fe
0.752505 0.748083 0.501818 Fe
0.997504 0.748964 0.746343 Fe
0.499991 0.248273 0.751996 Fe
0.496286 0.751164 0.250440 Fe
0.497413 0.751944 0.748008 Fe
0.254675 0.501537 0.249379 Fe
0.751918 0.001640 0.251969 Fe
0.751209 0.497423 0.251216 Fe
0.752204 0.499129 0.748921 Fe
0.998083 0.998523 0.497621 Fe
0.997443 0.500533 0.000898 Fe
0.998478 0.502459 0.498669 Fe
0.495217 0.498252 0.500663 Fe
0.252299 0.248008 0.001955 Fe
0.254016 0.248766 0.499275 Fe
0.250184 0.751808 0.998160 Fe
0.752641 0.250992 0.003481 Fe
0.997294 0.252262 0.247903 Fe
0.996141 0.251241 0.750732 Fe
0.000004 0.748449 0.251825 Fe
0.497604 0.249075 0.246084 Fe
0.252496 0.999182 0.249153 Fe
0.251119 0.997558 0.751139 Fe
0.251876 0.501605 0.751927 Fe
0.754526 0.001647 0.749679 Fe
