../1-ideal/perfect-sqs-32/POSCAR
1.0
6.838206 -0.013082 -0.456976
0.420932 7.202455 -0.142707
-0.221433 -0.418445 6.452993
Fe
32
direct
0.997127 0.974084 0.995057 Fe
0.505521 0.054101 0.964129 Fe
0.503812 0.963278 0.470074 Fe
0.482231 0.455053 0.949633 Fe
0.274683 0.710115 0.560164 Fe
0.800934 0.295564 0.528258 Fe
0.820670 0.723930 0.057898 Fe
0.769985 0.812022 0.447435 Fe
0.987384 0.683791 0.684389 Fe
0.549906 0.274563 0.719791 Fe
0.544472 0.721423 0.242751 Fe
0.553623 0.813944 0.817111 Fe
0.202151 0.525272 0.309818 Fe
0.727947 0.052168 0.198765 Fe
0.711713 0.444716 0.217577 Fe
0.802906 0.433921 0.764118 Fe
0.976980 0.009302 0.546009 Fe
0.037849 0.433984 0.973132 Fe
0.040836 0.545589 0.529531 Fe
0.550813 0.456463 0.471657 Fe
0.207354 0.235188 0.018292 Fe
0.202530 0.236306 0.437384 Fe
0.211651 0.778515 0.941360 Fe
0.746582 0.239866 0.961770 Fe
0.055607 0.202936 0.201470 Fe
0.060245 0.238021 0.763315 Fe
0.039634 0.715935 0.245926 Fe
0.468469 0.308116 0.235537 Fe
0.225729 0.955419 0.214874 Fe
0.193407 0.013105 0.815598 Fe
0.213807 0.494169 0.762897 Fe
0.735336 0.936302 0.737871 Fe
