../1-ideal/perfect-sqs-32/POSCAR
1.0
6.892952 -0.121068 -0.206607
-0.107084 7.053720 -0.392839
-0.175278 0.319722 6.738682
Fe
32
direct
0.952005 0.991964 0.972910 Fe
0.552373 0.015856 0.023644 Fe
0.507026 0.970552 0.530385 Fe
0.509567 0.537264 0.024287 Fe
0.278634 0.803993 0.520066 Fe
0.784103 0.238581 0.503850 Fe
0.733337 0.802984 0.054395 Fe
0.777572 0.757348 0.458790 Fe
0.979456 0.762946 0.736930 Fe
0.549384 0.244077 0.739194 Fe
0.519325 0.718209 0.199906 Fe
0.491409 0.723922 0.734419 Fe
0.229839 0.475597 0.211081 Fe
0.733026 0.057063 0.287355 Fe
0.768473 0.549741 0.289217 Fe
0.774233 0.496650 0.761135 Fe
0.034369 0.043137 0.472679 Fe
0.036682 0.445908 0.017148 Fe
0.015332 0.534300 0.542644 Fe
0.519024 0.548066 0.503946 Fe
0.231819 0.212478 0.972382 Fe
0.213344 0.280704 0.477772 Fe
0.248828 0.764413 0.991984 Fe
0.758523 0.290960 0.043990 Fe
0.999739 0.242835 0.215490 Fe
0.971069 0.298735 0.729188 Fe
0.005742 0.707104 0.271504 Fe
0.503164 0.274751 0.290991 Fe
0.268082 0.021034 0.202767 Fe
0.222461 0.028852 0.715468 Fe
0.251465 0.503373 0.751335 Fe
0.708512 0.041807 0.766121 Fe
