../1-ideal/perfect-sqs-32/POSCAR
1.0
7.103187 -0.389224 -0.403175
-0.045714 7.145155 0.094404
0.027551 -0.037344 6.755223
Fe
32
direct
0.970419 0.041068 0.936283 Fe
0.477659 0.979621 0.056430 Fe
0.478826 0.991139 0.490535 Fe
0.543442 0.511594 0.934893 Fe
0.290394 0.784790 0.562861 Fe
0.691758 0.299518 0.449099 Fe
0.690708 0.700521 0.028638 Fe
0.783608 0.764936 0.495495 Fe
0.020156 0.700361 0.804707 Fe
0.438206 0.230727 0.774442 Fe
0.476274 0.756608 0.297343 Fe
0.507897 0.741868 0.718606 Fe
0.287461 0.565882 0.240526 Fe
0.754334 0.053155 0.225924 Fe
0.695119 0.543533 0.269445 Fe
0.785527 0.555761 0.687303 Fe
0.972753 0.963765 0.537651 Fe
0.963879 0.520165 0.955611 Fe
0.012456 0.539498 0.521481 Fe
0.523831 0.504373 0.453446 Fe
0.315907 0.217082 0.062502 Fe
0.307044 0.237951 0.501633 Fe
0.290178 0.749625 0.992136 Fe
0.743788 0.219220 0.008819 Fe
0.008419 0.303785 0.294877 Fe
0.036924 0.277087 0.723191 Fe
0.045636 0.801858 0.299394 Fe
0.554173 0.301110 0.303988 Fe
0.308046 0.973908 0.233466 Fe
0.235578 0.998792 0.742397 Fe
0.246058 0.514303 0.772621 Fe
0.817487 0.986624 0.744722 Fe
