../1-ideal/perfect-sqs-32/POSCAR
1.0
7.200229 0.375773 0.357933
-0.098230 7.085367 0.081812
0.020173 -0.325038 6.482082
Fe
32
direct
0.976016 0.935508 0.037777 Fe
0.558867 0.971619 0.055838 Fe
0.470077 0.952906 0.523393 Fe
0.437537 0.445690 0.946712 Fe
0.265808 0.690386 0.563955 Fe
0.744832 0.249108 0.498709 Fe
0.710852 0.726718 0.019500 Fe
0.700312 0.728331 0.471566 Fe
0.051905 0.732659 0.746393 Fe
0.461910 0.301466 0.753418 Fe
0.533127 0.701439 0.221224 Fe
0.537603 0.697625 0.722247 Fe
0.195911 0.451729 0.200350 Fe
0.713885 0.007235 0.198382 Fe
0.806011 0.458482 0.195960 Fe
0.710776 0.513245 0.713776 Fe
0.006370 0.951766 0.552961 Fe
0.968460 0.547837 0.005821 Fe
0.041802 0.476278 0.477319 Fe
0.463709 0.458170 0.461318 Fe
0.280444 0.228163 0.021821 Fe
0.203721 0.228466 0.559698 Fe
0.295573 0.790685 0.021613 Fe
0.714156 0.313293 0.960969 Fe
0.959547 0.291161 0.276134 Fe
0.046377 0.258886 0.800303 Fe
0.983535 0.773799 0.308738 Fe
0.514553 0.278629 0.254678 Fe
0.216248 0.036193 0.189578 Fe
0.204717 0.974331 0.732575 Fe
0.264056 0.466256 0.769086 Fe
0.704401 0.021809 0.758500 Fe
