../1-ideal/perfect-sqs-32/POSCAR
1.0
6.920757 0.089481 0.140176
0.185304 7.010688 -0.243945
0.234596 0.057070 6.833901
Fe
32
direct
0.985254 0.001839 0.000333 Fe
0.518718 0.002563 0.037178 Fe
0.516820 0.030320 0.519629 Fe
0.470322 0.532825 0.020706 Fe
0.250642 0.744641 0.537963 Fe
0.762257 0.270142 0.519756 Fe
0.735192 0.719642 0.013052 Fe
0.758813 0.762559 0.470482 Fe
0.973763 0.731637 0.761692 Fe
0.508238 0.255979 0.754542 Fe
0.527333 0.749901 0.224914 Fe
0.463458 0.755245 0.739074 Fe
0.290260 0.523619 0.258010 Fe
0.735489 0.964588 0.257013 Fe
0.731863 0.469734 0.235693 Fe
0.734222 0.485228 0.738308 Fe
0.991480 0.029337 0.524866 Fe
0.995750 0.483316 0.038863 Fe
0.008204 0.532259 0.533673 Fe
0.523053 0.514662 0.534968 Fe
0.284384 0.242868 0.004052 Fe
0.266963 0.220923 0.523411 Fe
0.283768 0.773121 0.991245 Fe
0.741913 0.274632 0.021683 Fe
0.961975 0.226467 0.272920 Fe
0.985560 0.221953 0.767339 Fe
0.992785 0.743809 0.217091 Fe
0.495633 0.235746 0.213689 Fe
0.216202 0.027037 0.232211 Fe
0.274374 0.028911 0.777367 Fe
0.284723 0.464853 0.766390 Fe
0.750093 0.993910 0.742569 Fe
