../1-ideal/perfect-sqs-32/POSCAR
1.0
7.215134 -0.119381 -0.019002
0.022543 7.062386 -0.004870
0.070871 -0.096729 7.012912
Fe
32
direct
0.999729 0.981491 0.997181 Fe
0.502977 0.006152 0.986857 Fe
0.488251 0.993830 0.483948 Fe
0.498332 0.512051 0.010957 Fe
0.250474 0.762534 0.507007 Fe
0.766507 0.268535 0.499927 Fe
0.756702 0.746668 0.990224 Fe
0.743982 0.765259 0.500373 Fe
0.986558 0.740409 0.761065 Fe
0.509740 0.254656 0.761300 Fe
0.504056 0.737735 0.260596 Fe
0.514643 0.745720 0.746786 Fe
0.254119 0.513299 0.252567 Fe
0.766157 0.012927 0.267728 Fe
0.740786 0.504116 0.258989 Fe
0.754544 0.495721 0.748408 Fe
0.993046 0.005252 0.497680 Fe
0.984446 0.512846 0.006963 Fe
0.988253 0.502803 0.492362 Fe
0.507889 0.485044 0.505075 Fe
0.257398 0.254470 0.998064 Fe
0.239325 0.254347 0.485526 Fe
0.256934 0.737998 0.007081 Fe
0.751914 0.244217 0.988562 Fe
0.986172 0.249903 0.264313 Fe
0.985893 0.234499 0.753985 Fe
0.014993 0.751961 0.261687 Fe
0.486073 0.266326 0.261156 Fe
0.265560 0.995699 0.262787 Fe
0.256373 0.994559 0.765116 Fe
0.266846 0.487063 0.767711 Fe
0.758100 0.990893 0.763564 Fe
