../1-ideal/perfect-sqs-32/POSCAR
1.0
7.047619 -0.104147 -0.065943
-0.011541 7.038860 -0.029033
0.102019 -0.027010 6.838123
Fe
32
direct
0.992085 0.994423 0.991184 Fe
0.489290 0.992394 0.995124 Fe
0.494306 0.010737 0.508766 Fe
0.485982 0.490798 0.000143 Fe
0.256236 0.748788 0.506226 Fe
0.743315 0.248007 0.499230 Fe
0.759848 0.735408 0.012204 Fe
0.755432 0.745568 0.497359 Fe
0.000418 0.741848 0.753661 Fe
0.502163 0.246723 0.757811 Fe
0.507550 0.762046 0.236532 Fe
0.506195 0.762713 0.753963 Fe
0.265121 0.505914 0.239231 Fe
0.750012 0.993674 0.264445 Fe
0.756128 0.494148 0.262148 Fe
0.739175 0.494505 0.756346 Fe
0.010917 0.999601 0.508851 Fe
0.985992 0.495530 0.987926 Fe
0.985432 0.511774 0.499174 Fe
0.486341 0.501703 0.503470 Fe
0.246688 0.259977 0.988299 Fe
0.245620 0.246309 0.510457 Fe
0.256636 0.740864 0.012041 Fe
0.744643 0.246032 0.007940 Fe
0.997703 0.246852 0.259557 Fe
0.992717 0.263776 0.753777 Fe
0.000901 0.756794 0.238619 Fe
0.506613 0.243918 0.258795 Fe
0.250768 0.996753 0.248552 Fe
0.260997 0.008974 0.762333 Fe
0.240486 0.487970 0.757479 Fe
0.766211 0.013502 0.752906 Fe
