../1-ideal/perfect-sqs-32/POSCAR
1.0
7.228852 -0.105379 -0.150215
-0.225591 7.170843 -0.001663
-0.120808 -0.081075 6.711198
Fe
32
direct
0.971445 0.014147 0.983947 Fe
0.492244 0.007810 0.984135 Fe
0.477789 0.986966 0.478173 Fe
0.526339 0.471360 0.019961 Fe
0.272803 0.761606 0.478064 Fe
0.742118 0.231510 0.490433 Fe
0.757209 0.782719 0.032197 Fe
0.779570 0.740254 0.513092 Fe
0.028587 0.744214 0.759849 Fe
0.520286 0.223408 0.777989 Fe
0.466103 0.721533 0.250679 Fe
0.504553 0.773446 0.752162 Fe
0.262413 0.507558 0.236083 Fe
0.780748 0.966798 0.265882 Fe
0.719582 0.476228 0.217873 Fe
0.739053 0.483583 0.740205 Fe
0.026839 0.972133 0.500264 Fe
0.991338 0.481854 0.984182 Fe
0.013334 0.526513 0.470742 Fe
0.521146 0.468529 0.482752 Fe
0.245039 0.238779 0.969544 Fe
0.277053 0.273600 0.522420 Fe
0.274170 0.728089 0.979240 Fe
0.725296 0.237765 0.978073 Fe
0.030273 0.220882 0.267635 Fe
0.980303 0.269940 0.767180 Fe
0.000487 0.744186 0.264534 Fe
0.519317 0.241819 0.217304 Fe
0.267580 0.003983 0.284898 Fe
0.262915 0.009437 0.751411 Fe
0.274505 0.466399 0.770685 Fe
0.784780 0.022931 0.722381 Fe
