../1-ideal/perfect-sqs-32/POSCAR
1.0
7.080058 0.043974 -0.053438
-0.048143 7.004628 0.004647
0.086894 -0.072470 7.053660
Fe
32
direct
0.991525 0.994343 0.021856 Fe
0.478447 0.992221 0.001509 Fe
0.493356 0.994112 0.480799 Fe
0.494664 0.508910 0.996713 Fe
0.252903 0.740394 0.499912 Fe
0.748966 0.248111 0.481733 Fe
0.742293 0.735580 0.008505 Fe
0.772492 0.736025 0.502879 Fe
0.984358 0.727338 0.742383 Fe
0.479882 0.231002 0.734855 Fe
0.484104 0.749441 0.234572 Fe
0.518319 0.747034 0.755569 Fe
0.257001 0.496777 0.272236 Fe
0.729842 0.984513 0.273166 Fe
0.745912 0.491437 0.253139 Fe
0.752113 0.514890 0.771575 Fe
0.984433 0.985698 0.503637 Fe
0.986535 0.514937 0.989937 Fe
0.978066 0.489290 0.496119 Fe
0.501410 0.488083 0.511311 Fe
0.265363 0.240447 0.994452 Fe
0.232823 0.265447 0.517118 Fe
0.270425 0.770631 0.982166 Fe
0.763956 0.253261 0.025565 Fe
0.008812 0.246362 0.258403 Fe
0.998822 0.246321 0.756232 Fe
0.999857 0.761346 0.246842 Fe
0.492043 0.268316 0.263047 Fe
0.245458 0.995208 0.250051 Fe
0.242300 0.977326 0.730329 Fe
0.244293 0.483139 0.761019 Fe
0.747728 0.985346 0.736577 Fe
