../1-ideal/perfect-sqs-32/POSCAR
1.0
7.039201 0.002075 0.081912
0.063636 7.160596 0.014931
0.153102 -0.225846 7.140800
Fe
32
direct
0.012631 0.015144 0.996252 Fe
0.513139 0.989355 0.981605 Fe
0.482386 0.972728 0.523836 Fe
0.526243 0.478730 0.984383 Fe
0.228068 0.754741 0.512911 Fe
0.719003 0.234502 0.488294 Fe
0.774280 0.733670 0.988680 Fe
0.728195 0.754599 0.497883 Fe
0.983814 0.724752 0.777942 Fe
0.524760 0.236377 0.749218 Fe
0.525216 0.745298 0.280973 Fe
0.477522 0.783757 0.717521 Fe
0.251641 0.473177 0.248243 Fe
0.779227 0.015989 0.274246 Fe
0.767374 0.484060 0.266073 Fe
0.779193 0.503360 0.726258 Fe
0.024429 0.974729 0.484285 Fe
0.004676 0.513172 0.004785 Fe
0.012117 0.490974 0.509499 Fe
0.472634 0.505016 0.530995 Fe
0.230258 0.220551 0.975694 Fe
0.272667 0.230018 0.526669 Fe
0.266209 0.781598 0.019309 Fe
0.758580 0.247071 0.027608 Fe
0.966780 0.251394 0.244143 Fe
0.984349 0.242176 0.775415 Fe
0.986973 0.738201 0.277941 Fe
0.522603 0.217734 0.239240 Fe
0.280013 0.015649 0.239751 Fe
0.266452 0.002707 0.778481 Fe
0.229521 0.496093 0.748331 Fe
0.728569 0.018646 0.720100 Fe
