../1-ideal/perfect-sqs-32/POSCAR
1.0
7.034300 0.079088 0.066921
-0.040102 6.987632 -0.014595
0.006428 -0.236969 6.905406
Fe
32
direct
0.010424 0.019207 0.978351 Fe
0.512614 0.972500 0.018733 Fe
0.520930 0.026802 0.526254 Fe
0.487821 0.522667 0.971547 Fe
0.286375 0.764952 0.472600 Fe
0.722341 0.219635 0.487764 Fe
0.773745 0.742729 0.012495 Fe
0.728729 0.780379 0.479805 Fe
0.967652 0.736019 0.717010 Fe
0.512006 0.235315 0.717983 Fe
0.482183 0.747891 0.252979 Fe
0.491993 0.731929 0.736998 Fe
0.237279 0.506903 0.245290 Fe
0.779758 0.034081 0.261907 Fe
0.781403 0.473574 0.286033 Fe
0.723320 0.499791 0.736082 Fe
0.980580 0.988283 0.464926 Fe
0.977859 0.475664 0.024263 Fe
0.977407 0.531797 0.464895 Fe
0.508124 0.511436 0.490793 Fe
0.248709 0.230969 0.976812 Fe
0.260328 0.235130 0.516261 Fe
0.241741 0.747974 0.973764 Fe
0.728103 0.219316 0.995556 Fe
0.984660 0.240001 0.267779 Fe
0.999749 0.240398 0.724337 Fe
0.967294 0.774544 0.236541 Fe
0.469066 0.214385 0.223530 Fe
0.283195 0.005468 0.253822 Fe
0.221415 0.978845 0.774552 Fe
0.248643 0.477966 0.732174 Fe
0.778878 0.012908 0.720609 Fe
