../1-ideal/perfect-sqs-32/POSCAR
1.0
7.005328 0.048255 0.190380
-0.099699 6.932863 -0.116927
0.110190 -0.351416 7.273458
Fe
32
direct
0.957371 0.981141 0.959453 Fe
0.473697 0.967722 0.008454 Fe
0.485818 0.043046 0.489442 Fe
0.545038 0.534857 0.957586 Fe
0.215509 0.705053 0.531479 Fe
0.801035 0.266243 0.449134 Fe
0.708788 0.778277 0.033457 Fe
0.772929 0.777842 0.451782 Fe
0.965041 0.732839 0.711814 Fe
0.489700 0.291488 0.803641 Fe
0.526808 0.737463 0.302388 Fe
0.500926 0.765620 0.785376 Fe
0.223225 0.541059 0.196853 Fe
0.781469 0.013787 0.212472 Fe
0.759374 0.547659 0.262391 Fe
0.705698 0.445936 0.710795 Fe
0.032184 0.045842 0.483698 Fe
0.047169 0.454436 0.042555 Fe
0.040127 0.494321 0.514466 Fe
0.456293 0.453604 0.449342 Fe
0.202635 0.240931 0.996695 Fe
0.247216 0.238657 0.552546 Fe
0.252093 0.704644 0.979172 Fe
0.767191 0.259032 0.997312 Fe
0.011969 0.204576 0.217754 Fe
0.950102 0.220861 0.753351 Fe
0.998882 0.699098 0.211513 Fe
0.480541 0.197702 0.211357 Fe
0.248168 0.002373 0.279481 Fe
0.210140 0.021852 0.774293 Fe
0.276242 0.538913 0.761318 Fe
0.718174 0.049382 0.743056 Fe
