../1-ideal/perfect-sqs-32/POSCAR
   1.00000000000000
     7.0627369157024376   -0.1275698730942590   -0.1771385353441200
    -0.1198804564954720    6.8628092373803948   -0.1328008349628650
    -0.0927151875276760    0.0627763262897920    6.8145227132568467
   Fe   Fe
    16    16
Direct
  0.0241304796786252  0.9769330228790452  0.0304200178640599
  0.4795555833537932  0.0224016823575184  0.0073120290339688
  0.4899260264661933  0.9750864765318568  0.5258070966894124
  0.4743501476402088  0.5179514448083395  0.9853964874625305
  0.2615669187631084  0.7548435773139417  0.4801142172232744
  0.7266126983219294  0.2322380619024287  0.5051780789308324
  0.7791615448097886  0.7512821427423901  0.9875045301456851
  0.7673797609430011  0.7507106079732679  0.5286178813127975
  0.0251973426178580  0.7198409522938789  0.7232711745836937
  0.5019760620167872  0.2326378999386520  0.7352718352731173
  0.4693134598124686  0.7779764127689361  0.2807016665759861
  0.5118953149512890  0.7439457467827424  0.7629552656177836
  0.2605707981418206  0.4942638081398840  0.2597243381416803
  0.7604269821638354  0.9781333724572576  0.2209766562327786
  0.7602215421550227  0.5177689075204412  0.2823828151456595
  0.7737960287816890  0.4804706941382335  0.7485152031676847
  0.0196009904461150  0.0116668462443030  0.4941775675226268
  0.0028149749570687  0.4862181499363416  0.9879610102998555
  0.9955966808538079  0.5128968032683829  0.4672179235214102
  0.4911387810248868  0.4745875666625423  0.4864044196268722
  0.2702767468262053  0.2170159536249301  0.0170855444263580
  0.2336226208989913  0.2500251611900097  0.5316836073714057
  0.2220689869817107  0.7387065008294442  0.9771359208803148
  0.7250613628596057  0.2768276632860278  0.9786519876428770
  0.9935142189002235  0.2665304540002751  0.2255304959290996
  0.9737883954507538  0.2561795876343851  0.7355669077266853
  0.9981142603073039  0.7255500744234737  0.2633864604805183
  0.5273602410475178  0.2725150557848295  0.2499399958263453
  0.2385103176113859  0.0056324424488920  0.2630185977460400
  0.2386468919050913  0.9940576301824606  0.7375378089842499
  0.2738838819382536  0.4786568287020714  0.7643596742071779
  0.7270849245014972  0.0328429081850246  0.7669698742460724

  0.00000000E+00  0.00000000E+00  0.00000000E+00
  0.00000000E+00  0.00000000E+00  0.00000000E+00
  0.00000000E+00  0.00000000E+00  0.00000000E+00
  0.00000000E+00  0.00000000E+00  0.00000000E+00
  0.00000000E+00  0.00000000E+00  0.00000000E+00
  0.00000000E+00  0.00000000E+00  0.00000000E+00
  0.00000000E+00  0.00000000E+00  0.00000000E+00
  0.00000000E+00  0.00000000E+00  0.00000000E+00
  0.00000000E+00  0.00000000E+00  0.00000000E+00
  0.00000000E+00  0.00000000E+00  0.00000000E+00
  0.00000000E+00  0.00000000E+00  0.00000000E+00
  0.00000000E+00  0.00000000E+00  0.00000000E+00
  0.00000000E+00  0.00000000E+00  0.00000000E+00
  0.00000000E+00  0.00000000E+00  0.00000000E+00
  0.00000000E+00  0.00000000E+00  0.00000000E+00
  0.00000000E+00  0.00000000E+00  0.00000000E+00
  0.00000000E+00  0.00000000E+00  0.00000000E+00
  0.00000000E+00  0.00000000E+00  0.00000000E+00
  0.00000000E+00  0.00000000E+00  0.00000000E+00
  0.00000000E+00  0.00000000E+00  0.00000000E+00
  0.00000000E+00  0.00000000E+00  0.00000000E+00
  0.00000000E+00  0.00000000E+00  0.00000000E+00
  0.00000000E+00  0.00000000E+00  0.00000000E+00
  0.00000000E+00  0.00000000E+00  0.00000000E+00
  0.00000000E+00  0.00000000E+00  0.00000000E+00
  0.00000000E+00  0.00000000E+00  0.00000000E+00
  0.00000000E+00  0.00000000E+00  0.00000000E+00
  0.00000000E+00  0.00000000E+00  0.00000000E+00
  0.00000000E+00  0.00000000E+00  0.00000000E+00
  0.00000000E+00  0.00000000E+00  0.00000000E+00
  0.00000000E+00  0.00000000E+00  0.00000000E+00
  0.00000000E+00  0.00000000E+00  0.00000000E+00
