../1-ideal/perfect-sqs-32/POSCAR
   1.00000000000000
     7.0670943362206078    0.1052790341032990    0.3266131560671240
    -0.1668756449776960    7.2403292653035241    0.2662051695102290
    -0.2554287633952860    0.2553925590148890    6.7592001441573206
   Fe   Fe
    16    16
Direct
  0.9760460262455481  0.0163875785145038  0.0177081598167277
  0.4770254076975959  0.9833933936103350  0.9550863427339209
  0.4805373323743325  0.9692676286669411  0.5040339819524391
  0.5204812072289542  0.5242437324595954  0.0180503635125504
  0.2594877683487553  0.7391888572809080  0.4554533389270361
  0.7968871097642065  0.2969105921564505  0.5263734274113148
  0.7211736017022403  0.7611922548948513  0.9687783515883410
  0.7238398100490215  0.7267894091758080  0.4714973515775327
  0.0372566700771912  0.7128710047184796  0.7393622524264458
  0.5298658275842456  0.2647973054655850  0.7602241338532636
  0.5123784489642205  0.7170181924976688  0.2567759088357420
  0.5302802269516818  0.7424947455607764  0.7013177909338708
  0.2731028491017327  0.5243908364654644  0.2607638531377034
  0.7238781650038177  0.0388865411863293  0.2428736317560904
  0.7641258945287603  0.5247787223293585  0.2901720448494274
  0.7218705768586346  0.5319072541828120  0.7815554388899812
  0.9849238044348851  0.0428733775847334  0.5041893418400747
  0.9799134379405174  0.5285980301053073  0.0460184553496248
  0.9991437986249352  0.4713428110789124  0.4972127780421545
  0.5071352919376153  0.4677878717251645  0.4613476481268819
  0.2918913404259698  0.2653204865708574  0.0201023527071129
  0.2982230593623072  0.2683040636488485  0.4804414011941986
  0.2940297421715456  0.7283072590403137  0.9555086990015838
  0.7130976042817636  0.2616931405796450  0.0247310648570505
  0.9940036410984447  0.2609970672979998  0.2924239307137668
  0.0380124974041891  0.2269880040908063  0.7781396388340056
  0.9921383584117862  0.7124186170981517  0.2831966371923187
  0.4804058467820411  0.2560337858580937  0.2654775260882616
  0.2386082354450920  0.9765867458704705  0.2459960801568073
  0.2507489261989733  0.0078472193099515  0.7271040003911367
  0.2473369763088442  0.4961122535998257  0.7140436611195895
  0.7568887230276573  0.9735452033069905  0.7702419678919412

  0.00000000E+00  0.00000000E+00  0.00000000E+00
  0.00000000E+00  0.00000000E+00  0.00000000E+00
  0.00000000E+00  0.00000000E+00  0.00000000E+00
  0.00000000E+00  0.00000000E+00  0.00000000E+00
  0.00000000E+00  0.00000000E+00  0.00000000E+00
  0.00000000E+00  0.00000000E+00  0.00000000E+00
  0.00000000E+00  0.00000000E+00  0.00000000E+00
  0.00000000E+00  0.00000000E+00  0.00000000E+00
  0.00000000E+00  0.00000000E+00  0.00000000E+00
  0.00000000E+00  0.00000000E+00  0.00000000E+00
  0.00000000E+00  0.00000000E+00  0.00000000E+00
  0.00000000E+00  0.00000000E+00  0.00000000E+00
  0.00000000E+00  0.00000000E+00  0.00000000E+00
  0.00000000E+00  0.00000000E+00  0.00000000E+00
  0.00000000E+00  0.00000000E+00  0.00000000E+00
  0.00000000E+00  0.00000000E+00  0.00000000E+00
  0.00000000E+00  0.00000000E+00  0.00000000E+00
  0.00000000E+00  0.00000000E+00  0.00000000E+00
  0.00000000E+00  0.00000000E+00  0.00000000E+00
  0.00000000E+00  0.00000000E+00  0.00000000E+00
  0.00000000E+00  0.00000000E+00  0.00000000E+00
  0.00000000E+00  0.00000000E+00  0.00000000E+00
  0.00000000E+00  0.00000000E+00  0.00000000E+00
  0.00000000E+00  0.00000000E+00  0.00000000E+00
  0.00000000E+00  0.00000000E+00  0.00000000E+00
  0.00000000E+00  0.00000000E+00  0.00000000E+00
  0.00000000E+00  0.00000000E+00  0.00000000E+00
  0.00000000E+00  0.00000000E+00  0.00000000E+00
  0.00000000E+00  0.00000000E+00  0.00000000E+00
  0.00000000E+00  0.00000000E+00  0.00000000E+00
  0.00000000E+00  0.00000000E+00  0.00000000E+00
  0.00000000E+00  0.00000000E+00  0.00000000E+00
