../1-ideal/perfect-sqs-32/POSCAR
1.0
7.139923 -0.048305 -0.028259
-0.019161 7.044579 -0.067586
-0.045994 -0.010050 6.889671
Fe
32
direct
0.996891 0.003476 0.994307 Fe
0.505724 0.011619 0.992082 Fe
0.495253 0.004594 0.496587 Fe
0.492971 0.494286 0.991898 Fe
0.257977 0.758209 0.507348 Fe
0.753761 0.243382 0.502764 Fe
0.762876 0.754214 0.994344 Fe
0.750576 0.739646 0.505537 Fe
0.995357 0.745123 0.745289 Fe
0.491075 0.256792 0.754691 Fe
0.501382 0.755842 0.245361 Fe
0.489827 0.746074 0.746769 Fe
0.250133 0.505384 0.241830 Fe
0.750939 0.000365 0.251464 Fe
0.750436 0.493342 0.247645 Fe
0.757649 0.491183 0.747259 Fe
0.989952 0.997642 0.496133 Fe
0.992433 0.500989 0.994590 Fe
0.997671 0.503321 0.499520 Fe
0.497312 0.501018 0.508431 Fe
0.260347 0.248494 0.002111 Fe
0.248150 0.252276 0.501290 Fe
0.251205 0.759389 0.004203 Fe
0.748028 0.251862 0.999859 Fe
0.002513 0.250773 0.255918 Fe
0.999159 0.245082 0.751912 Fe
0.001626 0.752050 0.253110 Fe
0.492651 0.241923 0.251023 Fe
0.247093 0.999425 0.253896 Fe
0.250013 0.988827 0.751710 Fe
0.252271 0.493043 0.751258 Fe
0.763603 0.998549 0.743417 Fe
