../1-ideal/perfect-sqs-32/POSCAR
   1.00000000000000
     7.0659539146407022    0.0476022365118980   -0.3224529334512500
    -0.0563942989718130    7.2592149564696324   -0.1355818365205810
    -0.3160619245620090    0.2377925284904940    6.8149170657856626
   Fe   Fe
    16    16
Direct
  0.9364558038592534  0.9940792411429271  0.0020471806846700
  0.5516100018074184  0.0023519532799767  0.9381316812255989
  0.5009149690607444  0.0540759369724597  0.4804319548266562
  0.4920817363277550  0.4768808299619494  0.0108517957502130
  0.2674583808142046  0.7235745771097086  0.5398557203773109
  0.7022525320794060  0.2044152234442507  0.5283598163811902
  0.7624119900528399  0.8025599485946344  0.9859861916814694
  0.7395794830322302  0.7328478048406737  0.4487696127995662
  0.9408904739083042  0.7096890132955096  0.7848176490717620
  0.5572396376910902  0.2393981617539467  0.6940041579765079
  0.5434286007251004  0.7842613041383402  0.2093994065825555
  0.4557556885834444  0.7684776803870292  0.7941022484107023
  0.2691207902944015  0.5469015675652074  0.2179539135207875
  0.7244635359738183  0.0344580007132151  0.2041548982311241
  0.7159356021836984  0.4480793496209330  0.3092701130659208
  0.8035673437088988  0.5274071296194123  0.7296073519962931
  0.9631427026235571  0.9933237620499398  0.5310393412990777
  0.9492076910464533  0.5385318578660048  0.9614593722394389
  0.0494465413016840  0.4969229070537935  0.5131393623693157
  0.5188242465129136  0.4675576142568616  0.5405867202118699
  0.2937272874961181  0.2455598830760977  0.9643312275754639
  0.2871818119491110  0.2540135061911428  0.5228300440625020
  0.2174085882124004  0.7615423046725027  0.0203806927207992
  0.7920074380060527  0.2584703524825258  0.0507650643795117
  0.9621935661050856  0.2964083128719821  0.2382542059565509
  0.0241856651383969  0.2429740146911001  0.6971769311384719
  0.9922922099837024  0.7530014311358428  0.2748609830015809
  0.4473991488676532  0.2376477325331550  0.2601559834853262
  0.2867309795228223  0.0225747646531715  0.2825391084934097
  0.2436336216476249  0.9757188617472465  0.7692705426296342
  0.2313715470080311  0.4493327216925138  0.7322102729383886
  0.7546834555239812  0.0482263962430309  0.7551194713450471

  0.00000000E+00  0.00000000E+00  0.00000000E+00
  0.00000000E+00  0.00000000E+00  0.00000000E+00
  0.00000000E+00  0.00000000E+00  0.00000000E+00
  0.00000000E+00  0.00000000E+00  0.00000000E+00
  0.00000000E+00  0.00000000E+00  0.00000000E+00
  0.00000000E+00  0.00000000E+00  0.00000000E+00
  0.00000000E+00  0.00000000E+00  0.00000000E+00
  0.00000000E+00  0.00000000E+00  0.00000000E+00
  0.00000000E+00  0.00000000E+00  0.00000000E+00
  0.00000000E+00  0.00000000E+00  0.00000000E+00
  0.00000000E+00  0.00000000E+00  0.00000000E+00
  0.00000000E+00  0.00000000E+00  0.00000000E+00
  0.00000000E+00  0.00000000E+00  0.00000000E+00
  0.00000000E+00  0.00000000E+00  0.00000000E+00
  0.00000000E+00  0.00000000E+00  0.00000000E+00
  0.00000000E+00  0.00000000E+00  0.00000000E+00
  0.00000000E+00  0.00000000E+00  0.00000000E+00
  0.00000000E+00  0.00000000E+00  0.00000000E+00
  0.00000000E+00  0.00000000E+00  0.00000000E+00
  0.00000000E+00  0.00000000E+00  0.00000000E+00
  0.00000000E+00  0.00000000E+00  0.00000000E+00
  0.00000000E+00  0.00000000E+00  0.00000000E+00
  0.00000000E+00  0.00000000E+00  0.00000000E+00
  0.00000000E+00  0.00000000E+00  0.00000000E+00
  0.00000000E+00  0.00000000E+00  0.00000000E+00
  0.00000000E+00  0.00000000E+00  0.00000000E+00
  0.00000000E+00  0.00000000E+00  0.00000000E+00
  0.00000000E+00  0.00000000E+00  0.00000000E+00
  0.00000000E+00  0.00000000E+00  0.00000000E+00
  0.00000000E+00  0.00000000E+00  0.00000000E+00
  0.00000000E+00  0.00000000E+00  0.00000000E+00
  0.00000000E+00  0.00000000E+00  0.00000000E+00
