../1-ideal/perfect-sqs-32/POSCAR
1.0
7.123774 -0.047273 0.028935
-0.001853 6.992203 -0.035259
0.063414 0.001056 6.964845
Fe
32
direct
0.989637 0.001416 0.002202 Fe
0.492380 0.002996 0.003720 Fe
0.500775 0.995992 0.500905 Fe
0.500596 0.492212 0.992246 Fe
0.250475 0.756747 0.503359 Fe
0.745315 0.251309 0.503947 Fe
0.759915 0.741478 0.999987 Fe
0.746365 0.748600 0.498119 Fe
0.992683 0.741834 0.746956 Fe
0.497137 0.244669 0.754151 Fe
0.502190 0.758620 0.252607 Fe
0.503792 0.753754 0.755669 Fe
0.258548 0.508810 0.250102 Fe
0.758940 0.006699 0.256226 Fe
0.746641 0.490401 0.253667 Fe
0.753383 0.506305 0.748646 Fe
0.990605 0.005719 0.496942 Fe
0.996855 0.494921 0.000043 Fe
0.993530 0.503265 0.495312 Fe
0.500874 0.492816 0.498249 Fe
0.252126 0.247405 0.997984 Fe
0.247351 0.244563 0.492676 Fe
0.256832 0.753910 0.992788 Fe
0.752318 0.251781 0.001919 Fe
0.994858 0.249879 0.251158 Fe
0.999046 0.248944 0.750465 Fe
0.993322 0.752841 0.257521 Fe
0.497216 0.254617 0.239552 Fe
0.253642 0.997989 0.246515 Fe
0.252317 0.002467 0.752245 Fe
0.255645 0.505014 0.753133 Fe
0.749719 0.003601 0.748116 Fe
