../1-ideal/perfect-sqs-32/POSCAR
1.0
7.004845 0.135368 -0.024614
0.028471 7.088904 0.097638
-0.139501 -0.008058 7.070736
Fe
32
direct
0.985509 0.003980 0.009824 Fe
0.488617 0.015200 0.983946 Fe
0.517643 0.001492 0.526469 Fe
0.517280 0.506892 0.988405 Fe
0.227036 0.776274 0.518905 Fe
0.752914 0.257867 0.516557 Fe
0.763195 0.747224 0.004198 Fe
0.735388 0.759887 0.498686 Fe
0.981559 0.773542 0.758824 Fe
0.507526 0.270454 0.770782 Fe
0.476012 0.740061 0.226707 Fe
0.495061 0.726055 0.770466 Fe
0.245827 0.516375 0.224736 Fe
0.741272 0.996918 0.278184 Fe
0.738185 0.519052 0.275627 Fe
0.739798 0.503454 0.745339 Fe
0.975819 0.008670 0.475951 Fe
0.014316 0.491638 0.974317 Fe
0.002070 0.526164 0.509398 Fe
0.506371 0.490110 0.476982 Fe
0.269550 0.250088 0.979782 Fe
0.271665 0.254369 0.490900 Fe
0.241299 0.774335 0.972114 Fe
0.757532 0.228360 0.016015 Fe
0.009652 0.252860 0.229066 Fe
0.012980 0.255150 0.735507 Fe
0.984350 0.753384 0.235491 Fe
0.516653 0.258534 0.248030 Fe
0.269209 0.996837 0.245734 Fe
0.252467 0.018859 0.751084 Fe
0.256335 0.516698 0.741565 Fe
0.760710 0.018526 0.767403 Fe
