../1-ideal/perfect-sqs-32/POSCAR
   1.00000000000000
     6.9248896845225616   -0.3318659593205340   -0.1979466875483020
     0.2935033642882630    7.0661862594364839    0.3015033325836900
     0.3964395417909560   -0.3406322472618690    7.0924065910997562
   Fe   Fe
    16    16
Direct
  0.0097435008101669  0.9709629233249544  0.9821906118140689
  0.5467932551420915  0.0388360871007833  0.0477690709530236
  0.4919529126972719  0.9865828754931201  0.4623074495841877
  0.5388366711526515  0.5538332652967242  0.0523258703932470
  0.2385667655234442  0.7562743630614079  0.5094341783142582
  0.7781441328255596  0.2506944930962263  0.5468727097409669
  0.8005899391924345  0.7963581020531407  0.0559671511088595
  0.7606289682629566  0.7289460531498761  0.4911427392262127
  0.0473866747849669  0.7571461984575265  0.7275436701231257
  0.5408504609135889  0.2140546828581051  0.7132027728570378
  0.4866978454428406  0.7532884594667806  0.3050145541237796
  0.4534497583716757  0.8060324392911227  0.6947523673394116
  0.2044937002523852  0.4900947421999575  0.2108218099285395
  0.7823547398157160  0.9858205090153902  0.2040156322378266
  0.7418688785093863  0.5061360699481625  0.2123269961263077
  0.7450668138453196  0.4624518850546195  0.6929323646616794
  0.9826485554330446  0.9706280554273263  0.5167867243084743
  0.0004372255226386  0.4484055132959810  0.0033413263054030
  0.9519693650221654  0.4600858106654684  0.4923865401753460
  0.4575758172317066  0.5375470998843070  0.5081954022522837
  0.2658798474329416  0.2984733152587253  0.0590399741982068
  0.2848454225053985  0.2944572780281689  0.4627104708955585
  0.2311802110248564  0.7105015467444176  0.0142267515053476
  0.7749688830244068  0.3034544623693733  0.9968755459772396
  0.0426226289702711  0.3076165133531248  0.2514937243411453
  0.9816013729006769  0.3024825970644400  0.7419717444964391
  0.0406933548058745  0.8035707153403422  0.2508529415372891
  0.5064027464391785  0.2692467526896039  0.2280614937521648
  0.2656917924581350  0.0057212871643983  0.2551588664608531
  0.2182275927235153  0.9486898941157094  0.8030564037642236
  0.2572845520615772  0.5054665244999015  0.7082950289528540
  0.7620756267011188  0.0459961052122750  0.7025498955870972

  0.00000000E+00  0.00000000E+00  0.00000000E+00
  0.00000000E+00  0.00000000E+00  0.00000000E+00
  0.00000000E+00  0.00000000E+00  0.00000000E+00
  0.00000000E+00  0.00000000E+00  0.00000000E+00
  0.00000000E+00  0.00000000E+00  0.00000000E+00
  0.00000000E+00  0.00000000E+00  0.00000000E+00
  0.00000000E+00  0.00000000E+00  0.00000000E+00
  0.00000000E+00  0.00000000E+00  0.00000000E+00
  0.00000000E+00  0.00000000E+00  0.00000000E+00
  0.00000000E+00  0.00000000E+00  0.00000000E+00
  0.00000000E+00  0.00000000E+00  0.00000000E+00
  0.00000000E+00  0.00000000E+00  0.00000000E+00
  0.00000000E+00  0.00000000E+00  0.00000000E+00
  0.00000000E+00  0.00000000E+00  0.00000000E+00
  0.00000000E+00  0.00000000E+00  0.00000000E+00
  0.00000000E+00  0.00000000E+00  0.00000000E+00
  0.00000000E+00  0.00000000E+00  0.00000000E+00
  0.00000000E+00  0.00000000E+00  0.00000000E+00
  0.00000000E+00  0.00000000E+00  0.00000000E+00
  0.00000000E+00  0.00000000E+00  0.00000000E+00
  0.00000000E+00  0.00000000E+00  0.00000000E+00
  0.00000000E+00  0.00000000E+00  0.00000000E+00
  0.00000000E+00  0.00000000E+00  0.00000000E+00
  0.00000000E+00  0.00000000E+00  0.00000000E+00
  0.00000000E+00  0.00000000E+00  0.00000000E+00
  0.00000000E+00  0.00000000E+00  0.00000000E+00
  0.00000000E+00  0.00000000E+00  0.00000000E+00
  0.00000000E+00  0.00000000E+00  0.00000000E+00
  0.00000000E+00  0.00000000E+00  0.00000000E+00
  0.00000000E+00  0.00000000E+00  0.00000000E+00
  0.00000000E+00  0.00000000E+00  0.00000000E+00
  0.00000000E+00  0.00000000E+00  0.00000000E+00
