../1-ideal/perfect-sqs-32/POSCAR
1.0
7.182679 0.104300 -0.076284
-0.004529 7.042292 -0.049190
0.007596 -0.045933 6.869288
Fe
32
direct
0.018993 0.022098 0.999520 Fe
0.512538 0.979381 0.024053 Fe
0.483299 0.978296 0.498040 Fe
0.497420 0.507337 0.000026 Fe
0.252311 0.771801 0.527469 Fe
0.762995 0.244845 0.518992 Fe
0.780722 0.760393 0.990283 Fe
0.746015 0.738453 0.530277 Fe
0.971826 0.772196 0.754172 Fe
0.525149 0.258329 0.723584 Fe
0.515949 0.761360 0.276494 Fe
0.488897 0.770320 0.748760 Fe
0.240001 0.514050 0.229393 Fe
0.757839 0.996475 0.249195 Fe
0.754820 0.504944 0.238089 Fe
0.761311 0.475185 0.763531 Fe
0.000453 0.980736 0.488917 Fe
0.993220 0.526841 0.027487 Fe
0.014493 0.528024 0.517784 Fe
0.506351 0.481856 0.494485 Fe
0.261683 0.267870 0.015405 Fe
0.227833 0.241453 0.472279 Fe
0.267145 0.724522 0.997822 Fe
0.744093 0.225110 0.996324 Fe
0.003264 0.270500 0.228079 Fe
0.979774 0.239845 0.750568 Fe
0.009134 0.764722 0.279508 Fe
0.514434 0.263831 0.238495 Fe
0.260347 0.984325 0.247742 Fe
0.244261 0.996212 0.761838 Fe
0.274098 0.480870 0.730963 Fe
0.736962 0.989744 0.755947 Fe
