../1-ideal/perfect-sqs-32/POSCAR
1.0
6.950585 0.218370 0.334673
-0.363890 7.390663 -0.336087
-0.322282 -0.150137 7.197461
Fe
32
direct
0.024162 0.037667 0.010290 Fe
0.481127 0.971216 0.033117 Fe
0.479657 0.019202 0.541692 Fe
0.501016 0.443610 0.994252 Fe
0.244987 0.760552 0.526580 Fe
0.702296 0.307765 0.471857 Fe
0.704505 0.784710 0.996976 Fe
0.723812 0.712267 0.528595 Fe
0.011544 0.800688 0.791645 Fe
0.463304 0.248414 0.771335 Fe
0.527474 0.798198 0.265989 Fe
0.509798 0.749049 0.723282 Fe
0.265146 0.522311 0.293029 Fe
0.712372 0.002361 0.294677 Fe
0.756870 0.485874 0.216433 Fe
0.704979 0.545010 0.722382 Fe
0.019189 0.976723 0.471993 Fe
0.980826 0.496679 0.036303 Fe
0.963247 0.484365 0.514272 Fe
0.475257 0.527553 0.531633 Fe
0.253903 0.272002 0.952650 Fe
0.197445 0.280589 0.493810 Fe
0.253658 0.724862 0.048711 Fe
0.789919 0.295895 0.969020 Fe
0.941123 0.231108 0.217308 Fe
0.984783 0.264497 0.778924 Fe
0.020137 0.794348 0.306846 Fe
0.479961 0.297391 0.253122 Fe
0.235148 0.973786 0.280180 Fe
0.268759 0.989922 0.785716 Fe
0.210520 0.515581 0.744071 Fe
0.734982 0.963183 0.744035 Fe
