../1-ideal/perfect-sqs-32/POSCAR
   1.00000000000000
     7.3067786802875103    0.1292369454809760   -0.4001683215385640
     0.0368068186901520    6.9999516829041042   -0.0396633510211170
    -0.3017485398574230    0.0883771086175650    6.6482075179713958
   Fe   Fe
    16    16
Direct
  0.9488024597656732  0.9803834445066002  0.9424586364819163
  0.4356493281042475  0.9769471470970785  0.0066702032573644
  0.4672353525875224  0.9851148291771850  0.5039556346138525
  0.4353316461617922  0.5218323056113476  0.9800054719377869
  0.2677140608369655  0.8097922566332230  0.4950130646599504
  0.7599892494558773  0.2881276339772043  0.4501805002448265
  0.7079860689521027  0.6856884826378149  0.9416341333899894
  0.7997668424886299  0.7937848332561401  0.5244278566404290
  0.9532232917263386  0.7451440150983757  0.6872682135845878
  0.5156515725729847  0.2851795038302640  0.7540170803425568
  0.4784150356420227  0.7610023342271148  0.2383748677003368
  0.5564196284005973  0.7744548122482584  0.7552983825534767
  0.2488772431807575  0.4520287643055738  0.2110470177975756
  0.7133376695347451  0.9399634378193440  0.3087485852769305
  0.7298563317218409  0.5587802400103499  0.2249982386703664
  0.7336980262445962  0.5124210647226732  0.7856010878460040
  0.0301235820194350  0.9943742191695151  0.5243865280772582
  0.9995098586984383  0.4393796015003986  0.9420162719176943
  0.0552492923299042  0.4845565220289032  0.5512253370265583
  0.5405784150833242  0.4840729133766928  0.4475255351784568
  0.2683071023580297  0.2566819005619010  0.0643829571934376
  0.2917135423209629  0.2255778720839601  0.4533152869011801
  0.2584748766135405  0.7207030572765802  0.0297001060367634
  0.6999867084366755  0.2648424142038053  0.0614295564666349
  0.9496486551792600  0.2331729153372066  0.2338783347331983
  0.0416850618938724  0.2493906605108478  0.7089650964671748
  0.9587235982064328  0.8048437845264047  0.2549332400154256
  0.4811542498375303  0.1900591077130471  0.2595223057120108
  0.2667447138686683  0.9733387189915348  0.2240907673728358
  0.2245810534003070  0.9458502943660037  0.7717890790505848
  0.2268047228678967  0.5500733427798110  0.7063976424540641
  0.7981410512966818  0.0133683067788155  0.7198821797680210

  0.00000000E+00  0.00000000E+00  0.00000000E+00
  0.00000000E+00  0.00000000E+00  0.00000000E+00
  0.00000000E+00  0.00000000E+00  0.00000000E+00
  0.00000000E+00  0.00000000E+00  0.00000000E+00
  0.00000000E+00  0.00000000E+00  0.00000000E+00
  0.00000000E+00  0.00000000E+00  0.00000000E+00
  0.00000000E+00  0.00000000E+00  0.00000000E+00
  0.00000000E+00  0.00000000E+00  0.00000000E+00
  0.00000000E+00  0.00000000E+00  0.00000000E+00
  0.00000000E+00  0.00000000E+00  0.00000000E+00
  0.00000000E+00  0.00000000E+00  0.00000000E+00
  0.00000000E+00  0.00000000E+00  0.00000000E+00
  0.00000000E+00  0.00000000E+00  0.00000000E+00
  0.00000000E+00  0.00000000E+00  0.00000000E+00
  0.00000000E+00  0.00000000E+00  0.00000000E+00
  0.00000000E+00  0.00000000E+00  0.00000000E+00
  0.00000000E+00  0.00000000E+00  0.00000000E+00
  0.00000000E+00  0.00000000E+00  0.00000000E+00
  0.00000000E+00  0.00000000E+00  0.00000000E+00
  0.00000000E+00  0.00000000E+00  0.00000000E+00
  0.00000000E+00  0.00000000E+00  0.00000000E+00
  0.00000000E+00  0.00000000E+00  0.00000000E+00
  0.00000000E+00  0.00000000E+00  0.00000000E+00
  0.00000000E+00  0.00000000E+00  0.00000000E+00
  0.00000000E+00  0.00000000E+00  0.00000000E+00
  0.00000000E+00  0.00000000E+00  0.00000000E+00
  0.00000000E+00  0.00000000E+00  0.00000000E+00
  0.00000000E+00  0.00000000E+00  0.00000000E+00
  0.00000000E+00  0.00000000E+00  0.00000000E+00
  0.00000000E+00  0.00000000E+00  0.00000000E+00
  0.00000000E+00  0.00000000E+00  0.00000000E+00
  0.00000000E+00  0.00000000E+00  0.00000000E+00
