../1-ideal/perfect-sqs-32/POSCAR
1.0
7.105978 -0.045394 0.069549
-0.029930 6.999303 -0.040297
0.027791 0.018031 6.900713
Fe
32
direct
0.989395 0.001125 0.004131 Fe
0.497145 0.000542 0.992042 Fe
0.498710 0.001750 0.503349 Fe
0.496631 0.501277 0.002371 Fe
0.256082 0.748180 0.507019 Fe
0.750029 0.258166 0.490252 Fe
0.749535 0.756379 0.003360 Fe
0.746321 0.752667 0.500676 Fe
0.004074 0.742586 0.741652 Fe
0.504447 0.251084 0.756755 Fe
0.503311 0.745859 0.244923 Fe
0.490105 0.751322 0.754674 Fe
0.259027 0.503776 0.256093 Fe
0.748629 0.002932 0.258931 Fe
0.744767 0.504348 0.257702 Fe
0.751993 0.496031 0.744354 Fe
0.991523 0.001402 0.497684 Fe
0.002961 0.496050 0.998689 Fe
0.004199 0.500541 0.495877 Fe
0.495383 0.502038 0.498728 Fe
0.249756 0.245966 0.996031 Fe
0.255446 0.241744 0.502848 Fe
0.244316 0.751032 0.004436 Fe
0.749568 0.248733 0.997047 Fe
0.999115 0.252983 0.250089 Fe
0.002531 0.243527 0.748966 Fe
0.993652 0.748763 0.250392 Fe
0.491701 0.242107 0.250372 Fe
0.254711 0.996218 0.244470 Fe
0.252252 0.997445 0.755544 Fe
0.258893 0.496762 0.758881 Fe
0.755130 0.002808 0.748020 Fe
