../1-ideal/perfect-sqs-32/POSCAR
1.0
7.061971 -0.078118 -0.278970
-0.321062 7.247414 -0.025347
-0.314114 0.275509 6.653230
Fe
32
direct
0.008209 0.024407 0.939802 Fe
0.548109 0.067684 0.933143 Fe
0.467586 0.932408 0.475188 Fe
0.529478 0.455558 0.989360 Fe
0.206752 0.700537 0.550116 Fe
0.776966 0.311217 0.486445 Fe
0.781698 0.788221 0.045374 Fe
0.764191 0.696362 0.505869 Fe
0.061786 0.708286 0.774995 Fe
0.444785 0.213930 0.721229 Fe
0.491027 0.711808 0.248502 Fe
0.447185 0.783700 0.806756 Fe
0.225286 0.434103 0.311934 Fe
0.787771 0.042209 0.244450 Fe
0.778793 0.521182 0.228069 Fe
0.701685 0.461839 0.732123 Fe
0.026584 0.976056 0.472794 Fe
0.967599 0.535613 0.036014 Fe
0.062623 0.531627 0.475796 Fe
0.452455 0.440963 0.490969 Fe
0.254969 0.220160 0.943408 Fe
0.270364 0.219059 0.495303 Fe
0.290369 0.738835 0.999010 Fe
0.808812 0.229235 0.066867 Fe
0.977228 0.206557 0.205170 Fe
0.981527 0.290138 0.792566 Fe
0.942065 0.811957 0.312548 Fe
0.448935 0.252037 0.234014 Fe
0.212037 0.067752 0.290082 Fe
0.184816 0.999758 0.685428 Fe
0.263633 0.434281 0.777060 Fe
0.721505 0.989455 0.798599 Fe
