../1-ideal/perfect-sqs-32/POSCAR
1.0
6.835284 -0.275776 0.274524
0.112993 6.671677 0.039529
0.095870 0.226806 6.897133
Fe
32
direct
0.049635 0.955868 0.955822 Fe
0.541400 0.971468 0.004143 Fe
0.463383 0.008912 0.451932 Fe
0.459621 0.508125 0.040154 Fe
0.254419 0.702543 0.483018 Fe
0.753330 0.213073 0.494176 Fe
0.717358 0.697006 0.015953 Fe
0.769644 0.737813 0.486181 Fe
0.040990 0.696639 0.776238 Fe
0.524391 0.231269 0.732648 Fe
0.456716 0.793546 0.222201 Fe
0.523759 0.783911 0.771727 Fe
0.268331 0.545977 0.258949 Fe
0.743293 0.993820 0.214338 Fe
0.699077 0.446410 0.293725 Fe
0.714867 0.522899 0.767836 Fe
0.001452 0.011038 0.528761 Fe
0.959726 0.500191 0.963906 Fe
0.951690 0.467853 0.452635 Fe
0.517861 0.447085 0.515495 Fe
0.269925 0.289682 0.999159 Fe
0.289832 0.195743 0.547503 Fe
0.196165 0.791554 0.974041 Fe
0.732809 0.218775 0.057308 Fe
0.002449 0.219135 0.199790 Fe
0.014629 0.305325 0.786144 Fe
0.054646 0.797053 0.257156 Fe
0.459205 0.299389 0.254575 Fe
0.257653 0.043223 0.244056 Fe
0.267052 0.989197 0.764278 Fe
0.271196 0.458511 0.729975 Fe
0.806626 0.050179 0.796268 Fe
