../1-ideal/perfect-sqs-32/POSCAR
   1.00000000000000
     7.1798937918601409    0.2170096192333480    0.1266001924852730
     0.0752666899317480    6.8909419791025206   -0.2546111193863340
    -0.2093680311673330    0.0169332516969130    7.1193331599740848
   Fe   Fe
    16    16
Direct
  0.0311339139387101  0.9661957039360658  0.9785936878553230
  0.5313781710249685  0.9958068378561435  0.9720292586171126
  0.4671628233855500  0.0248111038837706  0.4680103333845125
  0.5256607466418757  0.4815615931138026  0.0258336638319605
  0.2841187596702568  0.7340921071473403  0.5289817346385846
  0.7332003949714831  0.2755840193977974  0.4607629387065444
  0.7264811754718750  0.7153685610924612  0.0193997539689974
  0.7284264502780289  0.7165574076865724  0.4898522293713867
  0.0039519514763882  0.7669365076058980  0.7571223907586884
  0.4848705432255400  0.2800230185475741  0.7839771088415048
  0.4846493653889752  0.7739428563287731  0.2397421476471067
  0.4984674358836685  0.7214550592995863  0.7247611973299470
  0.2842520192996645  0.4813790298244882  0.2329819488309468
  0.7180396812378689  0.0293069494448304  0.2487589547649875
  0.7371823787761187  0.5043098082777178  0.2548725599019619
  0.7745113960498173  0.5076344445869694  0.7665429652946969
  0.9744868159368494  0.9870121167771515  0.4862580855698653
  0.9641852489420657  0.4645612795781631  0.9646401963490376
  0.0153907138042300  0.4694854378921107  0.4650734380857955
  0.5054679302798846  0.4710276023338764  0.4642771249156397
  0.2591999711923023  0.2222754242790970  0.0239077683806528
  0.2576769749796242  0.2748004001189557  0.4968732394903341
  0.2543782993129966  0.7559432428279607  0.9739084497142230
  0.7392602954576120  0.2235526592345423  0.0000754573610067
  0.9937018604202592  0.2305517251961291  0.2550597792077056
  0.0048443708342703  0.2218221374783695  0.7819036427792554
  0.9745134056954825  0.7421262271714610  0.2701437068700940
  0.5326881215911001  0.2195724012293709  0.2193660565420998
  0.2809863050570769  0.0090493340868747  0.2147934525120618
  0.2716736654953067  0.9939810554621928  0.7431557829750446
  0.2236139434729125  0.5273222936134658  0.7345974679771956
  0.7628028455784488  0.0348910893908467  0.7799421537709819

  0.00000000E+00  0.00000000E+00  0.00000000E+00
  0.00000000E+00  0.00000000E+00  0.00000000E+00
  0.00000000E+00  0.00000000E+00  0.00000000E+00
  0.00000000E+00  0.00000000E+00  0.00000000E+00
  0.00000000E+00  0.00000000E+00  0.00000000E+00
  0.00000000E+00  0.00000000E+00  0.00000000E+00
  0.00000000E+00  0.00000000E+00  0.00000000E+00
  0.00000000E+00  0.00000000E+00  0.00000000E+00
  0.00000000E+00  0.00000000E+00  0.00000000E+00
  0.00000000E+00  0.00000000E+00  0.00000000E+00
  0.00000000E+00  0.00000000E+00  0.00000000E+00
  0.00000000E+00  0.00000000E+00  0.00000000E+00
  0.00000000E+00  0.00000000E+00  0.00000000E+00
  0.00000000E+00  0.00000000E+00  0.00000000E+00
  0.00000000E+00  0.00000000E+00  0.00000000E+00
  0.00000000E+00  0.00000000E+00  0.00000000E+00
  0.00000000E+00  0.00000000E+00  0.00000000E+00
  0.00000000E+00  0.00000000E+00  0.00000000E+00
  0.00000000E+00  0.00000000E+00  0.00000000E+00
  0.00000000E+00  0.00000000E+00  0.00000000E+00
  0.00000000E+00  0.00000000E+00  0.00000000E+00
  0.00000000E+00  0.00000000E+00  0.00000000E+00
  0.00000000E+00  0.00000000E+00  0.00000000E+00
  0.00000000E+00  0.00000000E+00  0.00000000E+00
  0.00000000E+00  0.00000000E+00  0.00000000E+00
  0.00000000E+00  0.00000000E+00  0.00000000E+00
  0.00000000E+00  0.00000000E+00  0.00000000E+00
  0.00000000E+00  0.00000000E+00  0.00000000E+00
  0.00000000E+00  0.00000000E+00  0.00000000E+00
  0.00000000E+00  0.00000000E+00  0.00000000E+00
  0.00000000E+00  0.00000000E+00  0.00000000E+00
  0.00000000E+00  0.00000000E+00  0.00000000E+00
