../1-ideal/perfect-sqs-32/POSCAR
1.0
6.970451 0.013087 0.163765
0.114387 7.130942 -0.164896
0.181788 -0.010146 6.956914
Fe
32
direct
0.979408 0.022774 0.001216 Fe
0.521141 0.005554 0.009680 Fe
0.473071 0.976145 0.510801 Fe
0.490984 0.482657 0.974993 Fe
0.257538 0.726195 0.522380 Fe
0.736337 0.243017 0.508274 Fe
0.761846 0.756326 0.991009 Fe
0.742302 0.755715 0.483639 Fe
0.022545 0.769079 0.766072 Fe
0.488507 0.254230 0.726102 Fe
0.471915 0.730749 0.254810 Fe
0.500697 0.732580 0.729431 Fe
0.247625 0.527455 0.245548 Fe
0.775185 0.005972 0.236497 Fe
0.738634 0.519387 0.269163 Fe
0.757468 0.520821 0.754013 Fe
0.001615 0.012726 0.513089 Fe
0.974449 0.504438 0.006380 Fe
0.008149 0.499275 0.513245 Fe
0.470554 0.515127 0.489815 Fe
0.258003 0.253265 0.005915 Fe
0.264893 0.238098 0.517326 Fe
0.264365 0.729143 0.993239 Fe
0.731116 0.246455 0.017892 Fe
0.977391 0.276904 0.236027 Fe
0.016681 0.267474 0.760207 Fe
0.015055 0.741407 0.266135 Fe
0.482336 0.273384 0.233660 Fe
0.236479 0.014499 0.273542 Fe
0.231115 0.009454 0.758247 Fe
0.239681 0.483877 0.730605 Fe
0.775629 0.021945 0.732687 Fe
