../1-ideal/perfect-sqs-32/POSCAR
   1.00000000000000
     7.0670095104544020   -0.0763386233452980   -0.1204323514496760
    -0.1054480667856030    6.8655966311826546    0.0207823371844600
     0.1115608794488280    0.0332438458277050    6.9917337912033526
   Fe   Fe
    16    16
Direct
  0.9937547465082730  0.0311200343077260  0.9818712695362208
  0.5175753839717885  0.9882060785054563  0.0222349859900959
  0.4751949563238327  0.9970590620840980  0.4900407228332355
  0.4729175566368795  0.4810824391736617  0.0314059032882952
  0.2402422552030572  0.7561844532293307  0.5160400771271654
  0.7281112861593613  0.2499395332950627  0.5258539879078725
  0.7773529598570761  0.7262295863949717  0.0268654796823640
  0.7373845644849482  0.7753827196596532  0.4765936623334142
  0.0281138801814009  0.7587132826158722  0.7563591819352666
  0.5057735144920343  0.2723830650396337  0.7517567901481357
  0.4713086178315820  0.7594723547930968  0.2230162134552316
  0.5303133071883295  0.7212412621696700  0.7515364569971155
  0.2251558336308435  0.4802872236858846  0.2312523810306715
  0.7766868533851721  0.0198848741110993  0.2437068548574359
  0.7739353595542227  0.5144800225618766  0.2592346947129727
  0.7584107510130593  0.4656750107125731  0.7332176663487076
  0.9886989633322685  0.0285022559421009  0.4948789274240966
  0.9924556888655189  0.5312903092132331  0.9883223590475296
  0.9822530033235495  0.5126855095800167  0.5289465546535297
  0.4998978554171671  0.5069679245582606  0.4887961953863780
  0.2807813219284867  0.2437481371134780  0.9717422037468282
  0.2234124312539549  0.2393012242443149  0.4734043076764962
  0.2178774257755052  0.7354184961394736  0.0260652869690432
  0.7294201840876084  0.2387207162866787  0.0029851558179246
  0.9976196218538931  0.2567863493989222  0.2398693426386842
  0.0092886438772481  0.2292448164866698  0.7393839139484015
  0.0163881859812847  0.7319731214507001  0.2782530496789732
  0.5192666843189073  0.2344668680808581  0.2539429337803796
  0.2419904912050512  0.9771992625644259  0.2175049055457521
  0.2188443651790379  0.0123116712164233  0.7709426961231003
  0.2814967445331717  0.4965732863125893  0.7733518081973827
  0.7357190545761654  0.0104925106808551  0.7554534428499622

  0.00000000E+00  0.00000000E+00  0.00000000E+00
  0.00000000E+00  0.00000000E+00  0.00000000E+00
  0.00000000E+00  0.00000000E+00  0.00000000E+00
  0.00000000E+00  0.00000000E+00  0.00000000E+00
  0.00000000E+00  0.00000000E+00  0.00000000E+00
  0.00000000E+00  0.00000000E+00  0.00000000E+00
  0.00000000E+00  0.00000000E+00  0.00000000E+00
  0.00000000E+00  0.00000000E+00  0.00000000E+00
  0.00000000E+00  0.00000000E+00  0.00000000E+00
  0.00000000E+00  0.00000000E+00  0.00000000E+00
  0.00000000E+00  0.00000000E+00  0.00000000E+00
  0.00000000E+00  0.00000000E+00  0.00000000E+00
  0.00000000E+00  0.00000000E+00  0.00000000E+00
  0.00000000E+00  0.00000000E+00  0.00000000E+00
  0.00000000E+00  0.00000000E+00  0.00000000E+00
  0.00000000E+00  0.00000000E+00  0.00000000E+00
  0.00000000E+00  0.00000000E+00  0.00000000E+00
  0.00000000E+00  0.00000000E+00  0.00000000E+00
  0.00000000E+00  0.00000000E+00  0.00000000E+00
  0.00000000E+00  0.00000000E+00  0.00000000E+00
  0.00000000E+00  0.00000000E+00  0.00000000E+00
  0.00000000E+00  0.00000000E+00  0.00000000E+00
  0.00000000E+00  0.00000000E+00  0.00000000E+00
  0.00000000E+00  0.00000000E+00  0.00000000E+00
  0.00000000E+00  0.00000000E+00  0.00000000E+00
  0.00000000E+00  0.00000000E+00  0.00000000E+00
  0.00000000E+00  0.00000000E+00  0.00000000E+00
  0.00000000E+00  0.00000000E+00  0.00000000E+00
  0.00000000E+00  0.00000000E+00  0.00000000E+00
  0.00000000E+00  0.00000000E+00  0.00000000E+00
  0.00000000E+00  0.00000000E+00  0.00000000E+00
  0.00000000E+00  0.00000000E+00  0.00000000E+00
