../1-ideal/perfect-sqs-32/POSCAR
1.0
7.087396 -0.112041 0.048598
0.095199 7.075905 -0.118530
0.008724 -0.096613 7.018291
Fe
32
direct
0.981237 0.003139 0.012062 Fe
0.477131 0.988187 0.986049 Fe
0.506742 0.018085 0.496373 Fe
0.513236 0.474367 0.982221 Fe
0.276722 0.776123 0.499940 Fe
0.731945 0.227942 0.499917 Fe
0.749798 0.739275 0.024796 Fe
0.761359 0.757876 0.515217 Fe
0.997866 0.741990 0.721268 Fe
0.511325 0.236465 0.760605 Fe
0.514534 0.730247 0.273366 Fe
0.494949 0.743012 0.735565 Fe
0.258328 0.476893 0.230875 Fe
0.770080 0.997859 0.263316 Fe
0.750465 0.521932 0.259590 Fe
0.744395 0.501992 0.734123 Fe
0.982339 0.023502 0.508328 Fe
0.013355 0.509977 0.991743 Fe
0.018837 0.494978 0.508621 Fe
0.495025 0.490229 0.519242 Fe
0.250385 0.257502 0.006764 Fe
0.273463 0.244987 0.489196 Fe
0.242533 0.759774 0.975967 Fe
0.755457 0.238521 0.005143 Fe
0.989053 0.229142 0.244199 Fe
0.990772 0.271882 0.742727 Fe
0.023815 0.762993 0.229034 Fe
0.515841 0.271724 0.238782 Fe
0.248664 0.992220 0.257431 Fe
0.247714 0.990156 0.767366 Fe
0.237667 0.505517 0.757734 Fe
0.732612 0.020558 0.724587 Fe
