../1-ideal/perfect-sqs-32/POSCAR
1.0
7.120835 -0.058723 -0.042222
-0.060946 7.041735 0.014924
0.027133 0.041893 6.935913
Fe
32
direct
0.996383 0.990111 0.005715 Fe
0.493954 0.007274 0.993234 Fe
0.493765 0.004352 0.504380 Fe
0.500647 0.506195 0.002939 Fe
0.258592 0.748252 0.510650 Fe
0.744324 0.245192 0.501383 Fe
0.761433 0.742627 0.008649 Fe
0.751568 0.751557 0.511184 Fe
0.999722 0.754352 0.747429 Fe
0.506281 0.257398 0.750113 Fe
0.502076 0.756375 0.255701 Fe
0.505004 0.749165 0.747826 Fe
0.252377 0.507791 0.253237 Fe
0.742214 0.010963 0.244555 Fe
0.752749 0.502611 0.251829 Fe
0.756174 0.503514 0.754499 Fe
0.993466 0.005106 0.507034 Fe
0.997818 0.505118 0.003288 Fe
0.000934 0.504195 0.508457 Fe
0.487961 0.495555 0.501883 Fe
0.250815 0.256733 0.993910 Fe
0.248749 0.251302 0.502607 Fe
0.254678 0.750889 0.004010 Fe
0.753654 0.249445 0.011462 Fe
0.002769 0.242524 0.256026 Fe
0.992225 0.248405 0.751101 Fe
0.009833 0.758092 0.246973 Fe
0.504356 0.243368 0.250013 Fe
0.259585 0.009001 0.252599 Fe
0.254656 0.992378 0.757455 Fe
0.261583 0.506368 0.753092 Fe
0.764147 0.993067 0.741461 Fe
