../1-ideal/perfect-sqs-32/POSCAR
1.0
7.360264 0.189371 -0.001256
0.285827 7.377136 -0.065229
0.429314 0.340022 6.896193
Fe
32
direct
0.968351 0.956740 0.002316 Fe
0.535271 0.950893 0.971341 Fe
0.498560 0.020919 0.481033 Fe
0.491716 0.519766 0.970215 Fe
0.293069 0.697189 0.460014 Fe
0.740642 0.298047 0.532132 Fe
0.738408 0.776801 0.014844 Fe
0.747403 0.756371 0.550872 Fe
0.991573 0.778197 0.759261 Fe
0.547557 0.227685 0.791219 Fe
0.459056 0.780842 0.283060 Fe
0.496502 0.695709 0.698832 Fe
0.220670 0.464233 0.279364 Fe
0.808955 0.953256 0.248639 Fe
0.743576 0.534231 0.308267 Fe
0.739490 0.501212 0.777465 Fe
0.036084 0.040040 0.556686 Fe
0.962904 0.528254 0.000830 Fe
0.959542 0.470402 0.514689 Fe
0.508784 0.458827 0.496271 Fe
0.285410 0.296075 0.993856 Fe
0.274796 0.194794 0.514829 Fe
0.255541 0.775951 0.008330 Fe
0.722339 0.205034 0.054846 Fe
0.047300 0.235814 0.241355 Fe
0.980970 0.281360 0.720723 Fe
0.944589 0.799221 0.243358 Fe
0.454923 0.212132 0.271710 Fe
0.264284 0.031107 0.287095 Fe
0.272949 0.959178 0.727594 Fe
0.215190 0.456766 0.803242 Fe
0.727426 0.943650 0.761867 Fe
