../1-ideal/perfect-sqs-32/POSCAR
1.0
7.032554 0.096928 0.128370
0.102090 7.108592 0.235833
-0.115045 -0.236982 7.158816
Fe
32
direct
0.023888 0.956111 0.952724 Fe
0.539603 0.963871 0.958436 Fe
0.459829 0.025930 0.470579 Fe
0.459107 0.512452 0.026424 Fe
0.270502 0.719575 0.545641 Fe
0.792972 0.204602 0.489260 Fe
0.724150 0.758932 0.962539 Fe
0.754859 0.707743 0.543984 Fe
0.042062 0.750700 0.789670 Fe
0.499465 0.208094 0.771642 Fe
0.464979 0.781916 0.231489 Fe
0.511734 0.744454 0.700607 Fe
0.230051 0.493968 0.205754 Fe
0.770045 0.013976 0.226638 Fe
0.770077 0.528320 0.294250 Fe
0.785526 0.503677 0.787876 Fe
0.950618 0.957682 0.506361 Fe
0.002907 0.529679 0.023338 Fe
0.002366 0.514640 0.454052 Fe
0.528253 0.481044 0.470646 Fe
0.292168 0.232208 0.016663 Fe
0.267469 0.200723 0.457792 Fe
0.275968 0.774276 0.999148 Fe
0.708340 0.223147 0.985297 Fe
0.044777 0.227775 0.279585 Fe
0.026413 0.290736 0.745151 Fe
0.964378 0.754033 0.235928 Fe
0.457666 0.262260 0.240669 Fe
0.232077 0.972258 0.272800 Fe
0.259042 0.985453 0.788619 Fe
0.287110 0.475723 0.770639 Fe
0.741221 0.979652 0.705642 Fe
