../1-ideal/perfect-sqs-32/POSCAR
1.0
6.790321 -0.062353 -0.440101
-0.082907 6.558806 0.145935
-0.318489 -0.072468 7.206730
Fe
32
direct
0.059197 0.009487 0.030172 Fe
0.504698 0.951929 0.989107 Fe
0.487926 0.939288 0.557555 Fe
0.449693 0.543186 0.953483 Fe
0.280611 0.708337 0.528002 Fe
0.770707 0.208446 0.542235 Fe
0.711721 0.793670 0.045484 Fe
0.765913 0.762830 0.436701 Fe
0.977508 0.764913 0.720594 Fe
0.464493 0.233990 0.814305 Fe
0.460537 0.793343 0.244632 Fe
0.434712 0.755350 0.796564 Fe
0.306153 0.527840 0.304589 Fe
0.693347 0.007525 0.290584 Fe
0.708558 0.460940 0.254733 Fe
0.724086 0.534957 0.687704 Fe
0.979430 0.038987 0.454463 Fe
0.988516 0.449352 0.006779 Fe
0.987581 0.504560 0.498850 Fe
0.488950 0.507306 0.495736 Fe
0.224400 0.276582 0.022945 Fe
0.245555 0.263263 0.495493 Fe
0.185378 0.702085 0.950771 Fe
0.718433 0.224172 0.985136 Fe
0.995633 0.203569 0.277000 Fe
0.946997 0.214815 0.774439 Fe
0.950968 0.797415 0.269438 Fe
0.485462 0.315773 0.276493 Fe
0.245848 0.029845 0.282209 Fe
0.238758 0.006506 0.781776 Fe
0.300758 0.561399 0.754293 Fe
0.698899 0.046019 0.715350 Fe
