../1-ideal/perfect-sqs-32/POSCAR
1.0
6.941327 0.210129 0.301327
-0.159616 7.050183 0.040745
-0.039423 -0.263693 7.252300
Fe
32
direct
0.011608 0.967476 0.966467 Fe
0.465780 0.008588 0.047990 Fe
0.555873 0.965722 0.510882 Fe
0.528007 0.511634 0.024631 Fe
0.222080 0.800835 0.478135 Fe
0.755349 0.248074 0.456394 Fe
0.707062 0.744739 0.943571 Fe
0.753321 0.712094 0.441131 Fe
0.996754 0.762147 0.742714 Fe
0.538199 0.259760 0.761224 Fe
0.491168 0.803873 0.244334 Fe
0.505410 0.775370 0.795757 Fe
0.311854 0.453881 0.233959 Fe
0.707946 0.974227 0.257877 Fe
0.730052 0.442476 0.295932 Fe
0.739560 0.550635 0.703199 Fe
0.053033 0.991167 0.483308 Fe
0.941365 0.556471 0.042324 Fe
0.976064 0.482721 0.511356 Fe
0.484498 0.490114 0.466201 Fe
0.251540 0.215890 0.032831 Fe
0.219642 0.277938 0.511152 Fe
0.223325 0.795018 0.978420 Fe
0.807691 0.263625 0.983078 Fe
0.988044 0.245820 0.287458 Fe
0.970378 0.208142 0.766713 Fe
0.984320 0.724452 0.198567 Fe
0.477083 0.243003 0.297815 Fe
0.264577 0.030954 0.283569 Fe
0.291540 0.054107 0.706009 Fe
0.299404 0.521117 0.786194 Fe
0.698643 0.951686 0.689075 Fe
