../1-ideal/perfect-sqs-32/POSCAR
1.0
7.353823 0.224445 0.103163
-0.197544 6.812180 -0.145999
0.068056 -0.159021 6.981852
Fe
32
direct
0.018915 0.987777 0.980879 Fe
0.488783 0.038129 0.017541 Fe
0.513429 0.993416 0.508945 Fe
0.485737 0.470146 0.966393 Fe
0.237945 0.787540 0.487744 Fe
0.758944 0.260256 0.475724 Fe
0.740001 0.787242 0.004065 Fe
0.754385 0.755619 0.511519 Fe
0.024061 0.727753 0.736009 Fe
0.485555 0.251589 0.754757 Fe
0.487980 0.759051 0.264430 Fe
0.479349 0.713140 0.717766 Fe
0.240199 0.508138 0.259109 Fe
0.726725 0.040609 0.218127 Fe
0.749960 0.477940 0.286333 Fe
0.786077 0.502178 0.745121 Fe
0.961301 0.997091 0.521790 Fe
0.963551 0.494359 0.985868 Fe
0.993545 0.539545 0.497285 Fe
0.505162 0.522629 0.500042 Fe
0.271987 0.240776 0.970213 Fe
0.261292 0.256594 0.533411 Fe
0.271755 0.746353 0.015027 Fe
0.742357 0.230753 0.992231 Fe
0.988201 0.268627 0.237838 Fe
0.021274 0.227420 0.772055 Fe
0.986230 0.718252 0.238558 Fe
0.459196 0.283142 0.226238 Fe
0.236755 0.976162 0.262034 Fe
0.239570 0.028495 0.781693 Fe
0.247362 0.479877 0.722479 Fe
0.759213 0.013089 0.720885 Fe
