../1-ideal/perfect-sqs-32/POSCAR
1.0
7.262733 0.007814 0.222201
0.037033 7.106838 -0.173456
0.199515 -0.063066 6.910018
Fe
32
direct
0.018799 0.985810 0.017922 Fe
0.510094 0.989587 0.000461 Fe
0.468832 0.993545 0.500690 Fe
0.512736 0.474881 0.981922 Fe
0.279095 0.778625 0.509386 Fe
0.771139 0.274571 0.499198 Fe
0.765790 0.719987 0.013179 Fe
0.771465 0.740381 0.492731 Fe
0.002836 0.742325 0.755838 Fe
0.490342 0.237210 0.762417 Fe
0.484373 0.775922 0.252320 Fe
0.508051 0.735102 0.771039 Fe
0.228490 0.479157 0.257102 Fe
0.728147 0.012234 0.254371 Fe
0.767265 0.479747 0.254137 Fe
0.758704 0.478024 0.738328 Fe
0.016957 0.975961 0.499232 Fe
0.987726 0.476813 0.986436 Fe
0.022644 0.515922 0.524904 Fe
0.478769 0.515183 0.485319 Fe
0.268834 0.228789 0.018916 Fe
0.228133 0.264498 0.486405 Fe
0.239376 0.740818 0.000953 Fe
0.728086 0.272627 0.993437 Fe
0.981474 0.227764 0.228165 Fe
0.009113 0.261603 0.756162 Fe
0.016051 0.731167 0.231279 Fe
0.521730 0.277265 0.239045 Fe
0.262604 0.998848 0.262153 Fe
0.258346 0.998181 0.764354 Fe
0.246014 0.499407 0.765615 Fe
0.745336 0.981991 0.778032 Fe
