../1-ideal/perfect-sqs-32/POSCAR
1.0
7.575100 0.401442 -0.122135
0.461701 6.740818 -0.366975
-0.094450 -0.186031 6.642211
Fe
32
direct
0.942022 0.029452 0.015534 Fe
0.487918 0.980040 0.985717 Fe
0.465140 0.949895 0.519979 Fe
0.493459 0.470776 0.947996 Fe
0.275913 0.762977 0.561633 Fe
0.716953 0.298499 0.555786 Fe
0.711174 0.809683 0.013372 Fe
0.737100 0.723213 0.539483 Fe
0.978651 0.682492 0.733856 Fe
0.498928 0.275433 0.721663 Fe
0.558743 0.723404 0.246447 Fe
0.512754 0.742253 0.789897 Fe
0.321363 0.514264 0.261932 Fe
0.694148 0.990037 0.218977 Fe
0.706435 0.504928 0.309236 Fe
0.742770 0.515505 0.737145 Fe
0.037904 0.940322 0.445316 Fe
0.024535 0.566313 0.008889 Fe
0.054101 0.506591 0.453784 Fe
0.489442 0.495743 0.555944 Fe
0.295801 0.186116 0.001277 Fe
0.316502 0.302783 0.515039 Fe
0.315787 0.725808 0.985592 Fe
0.768533 0.272475 0.058096 Fe
0.051030 0.213011 0.208116 Fe
0.949464 0.312851 0.819035 Fe
0.956338 0.786185 0.301578 Fe
0.500252 0.279650 0.292140 Fe
0.220357 0.045522 0.269810 Fe
0.185758 0.056624 0.747427 Fe
0.244550 0.457479 0.764230 Fe
0.795526 0.951127 0.774912 Fe
