../1-ideal/perfect-sqs-32/POSCAR
1.0
7.098351 -0.037712 -0.131438
0.053271 7.235015 -0.089143
0.036754 0.076290 6.668813
Fe
32
direct
0.999383 0.030361 0.993478 Fe
0.519349 0.975840 0.025991 Fe
0.487201 0.991489 0.473205 Fe
0.523756 0.501587 0.000563 Fe
0.287707 0.750470 0.483874 Fe
0.781591 0.231330 0.506484 Fe
0.764183 0.739643 0.962773 Fe
0.771635 0.772866 0.507114 Fe
0.975689 0.722295 0.727955 Fe
0.523471 0.218000 0.764849 Fe
0.495598 0.740850 0.232598 Fe
0.488639 0.728846 0.774730 Fe
0.239415 0.527434 0.251444 Fe
0.727170 0.967942 0.258182 Fe
0.784220 0.501878 0.239849 Fe
0.738885 0.520887 0.775271 Fe
0.984379 0.987692 0.513435 Fe
0.003351 0.512479 0.018652 Fe
0.025324 0.477659 0.472935 Fe
0.509297 0.513277 0.491026 Fe
0.229947 0.219792 0.990739 Fe
0.237272 0.220164 0.516147 Fe
0.247757 0.723529 0.009879 Fe
0.728087 0.257569 0.996006 Fe
0.025125 0.275305 0.218799 Fe
0.975344 0.253610 0.771516 Fe
0.990436 0.774608 0.242142 Fe
0.522547 0.222333 0.258115 Fe
0.241367 0.963694 0.259180 Fe
0.270140 0.033367 0.750712 Fe
0.250183 0.536043 0.769890 Fe
0.757648 0.999846 0.764579 Fe
