../1-ideal/perfect-sqs-32/POSCAR
   1.00000000000000
     6.8731389685205668   -0.1619188468385740    0.1675135468104150
    -0.1930331059830750    6.7161110632931011   -0.1183658541804580
    -0.2246471941772040   -0.2506845719590050    7.1206430796999376
   Fe   Fe
    16    16
Direct
  0.9682274849379127  0.9872594078740633  0.9647241477572592
  0.5043146342300489  0.9802733599771045  0.0152586979222349
  0.5184009297839154  0.0206722733890032  0.5070473424965058
  0.5273360439038797  0.4984990226694350  0.9611906427044730
  0.2528855522927884  0.7855828357473271  0.4679567270645819
  0.7294025280103469  0.2323166003475805  0.4713789017778893
  0.7486450870655759  0.7586956438351109  0.0389594994308737
  0.7881098428596545  0.7594657359647030  0.4897157527958456
  0.9949687860503857  0.7179306723937557  0.7622492751259671
  0.5188992579240690  0.2361563972915377  0.7382761688222459
  0.5278545175875280  0.7827097894835049  0.2645074993826739
  0.4698787653965226  0.7107066868865175  0.7864497441748313
  0.2707451163381691  0.5299981977751216  0.2376105938024295
  0.7628179338261702  0.0004000755229399  0.2595092848475389
  0.7397613028882972  0.4718854274932056  0.2238210939734060
  0.7565862503247871  0.4593286665355265  0.7810786722933472
  0.9695193347994433  0.9654591288251950  0.4596711592840208
  0.0372997970920110  0.5157855332468984  0.0148093367276232
  0.9929551294939216  0.4862101312925518  0.4618234076691934
  0.4622071531129066  0.4828632887319699  0.5171535938910452
  0.2686444578621945  0.2261616847656498  0.0026132458490196
  0.2312944688483469  0.2103505928711513  0.4853566219003369
  0.2294161490626863  0.7353410932057045  0.0171231441781003
  0.7442165000511167  0.2745748487876298  0.0375444442095514
  0.0013731138357826  0.2897935099051949  0.2809732628140651
  0.9820217368862814  0.2586903265014939  0.7658442528895719
  0.0057925780382533  0.7803366688484559  0.2904786497527141
  0.5115354496234374  0.2363743803872964  0.2645183690441044
  0.2748632913084847  0.9578825716546007  0.2747521116198257
  0.2873164869354170  0.0082430208413413  0.7477048069308765
  0.2210157292083039  0.5406600921250231  0.7443421304333242
  0.7687360664317993  0.0208419220529237  0.7598879461710979

  0.00000000E+00  0.00000000E+00  0.00000000E+00
  0.00000000E+00  0.00000000E+00  0.00000000E+00
  0.00000000E+00  0.00000000E+00  0.00000000E+00
  0.00000000E+00  0.00000000E+00  0.00000000E+00
  0.00000000E+00  0.00000000E+00  0.00000000E+00
  0.00000000E+00  0.00000000E+00  0.00000000E+00
  0.00000000E+00  0.00000000E+00  0.00000000E+00
  0.00000000E+00  0.00000000E+00  0.00000000E+00
  0.00000000E+00  0.00000000E+00  0.00000000E+00
  0.00000000E+00  0.00000000E+00  0.00000000E+00
  0.00000000E+00  0.00000000E+00  0.00000000E+00
  0.00000000E+00  0.00000000E+00  0.00000000E+00
  0.00000000E+00  0.00000000E+00  0.00000000E+00
  0.00000000E+00  0.00000000E+00  0.00000000E+00
  0.00000000E+00  0.00000000E+00  0.00000000E+00
  0.00000000E+00  0.00000000E+00  0.00000000E+00
  0.00000000E+00  0.00000000E+00  0.00000000E+00
  0.00000000E+00  0.00000000E+00  0.00000000E+00
  0.00000000E+00  0.00000000E+00  0.00000000E+00
  0.00000000E+00  0.00000000E+00  0.00000000E+00
  0.00000000E+00  0.00000000E+00  0.00000000E+00
  0.00000000E+00  0.00000000E+00  0.00000000E+00
  0.00000000E+00  0.00000000E+00  0.00000000E+00
  0.00000000E+00  0.00000000E+00  0.00000000E+00
  0.00000000E+00  0.00000000E+00  0.00000000E+00
  0.00000000E+00  0.00000000E+00  0.00000000E+00
  0.00000000E+00  0.00000000E+00  0.00000000E+00
  0.00000000E+00  0.00000000E+00  0.00000000E+00
  0.00000000E+00  0.00000000E+00  0.00000000E+00
  0.00000000E+00  0.00000000E+00  0.00000000E+00
  0.00000000E+00  0.00000000E+00  0.00000000E+00
  0.00000000E+00  0.00000000E+00  0.00000000E+00
