../1-ideal/perfect-sqs-32/POSCAR
1.0
7.551153 -0.305128 0.154537
0.301406 6.946032 -0.094534
0.328013 -0.386780 6.957472
Fe
32
direct
0.039021 0.027985 0.997912 Fe
0.437968 0.980538 0.981796 Fe
0.533472 0.972824 0.446297 Fe
0.450653 0.475924 0.994788 Fe
0.230210 0.710718 0.540654 Fe
0.696537 0.218406 0.564678 Fe
0.721111 0.779202 0.009784 Fe
0.798243 0.783147 0.485617 Fe
0.979544 0.722480 0.713413 Fe
0.440134 0.260619 0.710962 Fe
0.539908 0.788070 0.210453 Fe
0.558472 0.689906 0.753051 Fe
0.220552 0.525455 0.311482 Fe
0.792138 0.019747 0.258148 Fe
0.783151 0.559982 0.295657 Fe
0.703745 0.486560 0.754554 Fe
0.055710 0.057318 0.470573 Fe
0.981082 0.518179 0.003958 Fe
0.965855 0.536897 0.474349 Fe
0.460689 0.538923 0.543613 Fe
0.293823 0.243460 0.017408 Fe
0.214603 0.196342 0.548866 Fe
0.308679 0.775114 0.964415 Fe
0.815900 0.280609 0.027098 Fe
0.938245 0.245652 0.228545 Fe
0.934620 0.189045 0.781978 Fe
0.025506 0.745751 0.189581 Fe
0.497389 0.253346 0.204451 Fe
0.199621 0.039502 0.192572 Fe
0.230077 0.976105 0.718016 Fe
0.218292 0.495524 0.733677 Fe
0.806508 0.939555 0.812912 Fe
