../1-ideal/perfect-sqs-32/POSCAR
1.0
7.097870 -0.010034 0.076318
-0.145035 7.104949 -0.032730
-0.034768 0.151691 6.955436
Fe
32
direct
0.007207 0.014963 0.982473 Fe
0.498064 0.992964 0.001255 Fe
0.502389 0.978467 0.501822 Fe
0.504986 0.506809 0.990552 Fe
0.258969 0.754971 0.502234 Fe
0.741539 0.273158 0.521978 Fe
0.760528 0.770052 0.023793 Fe
0.771710 0.736980 0.516880 Fe
0.012437 0.764571 0.757226 Fe
0.520312 0.267810 0.759099 Fe
0.519083 0.745902 0.228106 Fe
0.504261 0.752790 0.751591 Fe
0.245631 0.524568 0.227990 Fe
0.732036 0.985948 0.239214 Fe
0.770391 0.504393 0.266447 Fe
0.750343 0.519828 0.769613 Fe
0.983369 0.990772 0.504400 Fe
0.985845 0.485740 0.021523 Fe
0.975262 0.489556 0.491740 Fe
0.519063 0.508719 0.523097 Fe
0.237770 0.262472 0.017246 Fe
0.232749 0.225183 0.521120 Fe
0.240444 0.755614 0.973911 Fe
0.737176 0.241168 0.992803 Fe
0.987833 0.257511 0.235231 Fe
0.008418 0.234299 0.768228 Fe
0.014315 0.739083 0.250400 Fe
0.490085 0.241982 0.223348 Fe
0.255137 0.990722 0.232339 Fe
0.268107 0.995704 0.742056 Fe
0.250745 0.500418 0.752904 Fe
0.738853 0.000538 0.761030 Fe
