../1-ideal/perfect-sqs-32/POSCAR
   1.00000000000000
     7.4083653860963956    0.1120616991475810   -0.2693019528553630
    -0.3650523174847070    6.6594900705809774    0.1589176429485100
     0.3260277447423960   -0.0305950674767500    6.8379384561485939
   Fe   Fe
    16    16
Direct
  0.9845647656505250  0.9587715556813379  0.9635278425955036
  0.4528594877722725  0.9658074383665607  0.9812869293645363
  0.5015177936649380  0.0402201236540805  0.5315308479456178
  0.5362291709637361  0.5226307683136042  0.9639320677657253
  0.2597968064778868  0.7996811781080808  0.4900071325138100
  0.7324936802915758  0.2856630224837104  0.4637996608540149
  0.7838303009430021  0.7420700625077927  0.0398127194949822
  0.7478865388080393  0.7729440721252558  0.4893198525994364
  0.9498197236225892  0.7502908240340744  0.7264840725639132
  0.5041557026421657  0.2940249206960530  0.6988113885933345
  0.4809885662132771  0.7033097955745902  0.2990391656258922
  0.4690135522130703  0.7765461496732797  0.7518362002255827
  0.2376179404662366  0.5540258156152404  0.2318502385009182
  0.7454519246456286  0.0065478357683020  0.2029573714735520
  0.7223633172343824  0.4454261220416385  0.2015896934482697
  0.7324658204003285  0.5190572625988779  0.7414310519703236
  0.0167749106251733  0.0107241852745261  0.5485082187321666
  0.9805292263115106  0.4849981876198086  0.0083786401390853
  0.9742200615218408  0.5054555326649890  0.4726480407759155
  0.4530158526128929  0.4466005015990078  0.4783352421770601
  0.2281735670671665  0.2284965071245679  0.9981671625566761
  0.3021698093621694  0.2546465783481295  0.5016327956435447
  0.2999026468546120  0.7649345676871775  0.9612309537223140
  0.7069090172356667  0.2165000105231982  0.0356971520648131
  0.0134352426751789  0.2383947614737139  0.2877166246548200
  0.9922106541871827  0.2537914245581518  0.7033323900250892
  0.0199309567599215  0.7861683732854985  0.2058610571574206
  0.5005827467312542  0.2573076497400777  0.2817241574796796
  0.2476055703645201  0.0230172485189755  0.2736963514875512
  0.2270949382624750  0.0020983095439817  0.7460425168879183
  0.2292733039256305  0.5531976944478600  0.7637323413182102
  0.7467393783861809  0.0547245126180798  0.7847450068586994

  0.00000000E+00  0.00000000E+00  0.00000000E+00
  0.00000000E+00  0.00000000E+00  0.00000000E+00
  0.00000000E+00  0.00000000E+00  0.00000000E+00
  0.00000000E+00  0.00000000E+00  0.00000000E+00
  0.00000000E+00  0.00000000E+00  0.00000000E+00
  0.00000000E+00  0.00000000E+00  0.00000000E+00
  0.00000000E+00  0.00000000E+00  0.00000000E+00
  0.00000000E+00  0.00000000E+00  0.00000000E+00
  0.00000000E+00  0.00000000E+00  0.00000000E+00
  0.00000000E+00  0.00000000E+00  0.00000000E+00
  0.00000000E+00  0.00000000E+00  0.00000000E+00
  0.00000000E+00  0.00000000E+00  0.00000000E+00
  0.00000000E+00  0.00000000E+00  0.00000000E+00
  0.00000000E+00  0.00000000E+00  0.00000000E+00
  0.00000000E+00  0.00000000E+00  0.00000000E+00
  0.00000000E+00  0.00000000E+00  0.00000000E+00
  0.00000000E+00  0.00000000E+00  0.00000000E+00
  0.00000000E+00  0.00000000E+00  0.00000000E+00
  0.00000000E+00  0.00000000E+00  0.00000000E+00
  0.00000000E+00  0.00000000E+00  0.00000000E+00
  0.00000000E+00  0.00000000E+00  0.00000000E+00
  0.00000000E+00  0.00000000E+00  0.00000000E+00
  0.00000000E+00  0.00000000E+00  0.00000000E+00
  0.00000000E+00  0.00000000E+00  0.00000000E+00
  0.00000000E+00  0.00000000E+00  0.00000000E+00
  0.00000000E+00  0.00000000E+00  0.00000000E+00
  0.00000000E+00  0.00000000E+00  0.00000000E+00
  0.00000000E+00  0.00000000E+00  0.00000000E+00
  0.00000000E+00  0.00000000E+00  0.00000000E+00
  0.00000000E+00  0.00000000E+00  0.00000000E+00
  0.00000000E+00  0.00000000E+00  0.00000000E+00
  0.00000000E+00  0.00000000E+00  0.00000000E+00
