../1-ideal/perfect-sqs-32/POSCAR
1.0
7.204260 -0.083023 0.086695
-0.012263 6.924777 0.086050
-0.022111 0.067704 7.014844
Fe
32
direct
0.995575 0.981637 0.000342 Fe
0.505284 0.993999 0.987022 Fe
0.509194 0.013885 0.495110 Fe
0.498773 0.493962 0.003001 Fe
0.243826 0.759180 0.505105 Fe
0.758415 0.266457 0.498327 Fe
0.742316 0.731399 0.002296 Fe
0.760966 0.762267 0.511133 Fe
0.004247 0.765421 0.764125 Fe
0.504428 0.261480 0.742728 Fe
0.491841 0.736993 0.243679 Fe
0.486270 0.734735 0.750411 Fe
0.249950 0.508438 0.254010 Fe
0.741569 0.995097 0.264427 Fe
0.750773 0.493924 0.246273 Fe
0.743952 0.504204 0.755696 Fe
0.008408 0.982672 0.496455 Fe
0.987160 0.497146 0.999115 Fe
0.000554 0.500578 0.487311 Fe
0.477915 0.513742 0.510521 Fe
0.264832 0.255371 0.017895 Fe
0.248014 0.242036 0.507707 Fe
0.239805 0.760965 0.995482 Fe
0.742811 0.239098 0.993850 Fe
0.012665 0.244546 0.261250 Fe
0.999766 0.248305 0.733446 Fe
0.996120 0.732998 0.264842 Fe
0.491534 0.236040 0.261132 Fe
0.267315 0.009880 0.242876 Fe
0.254542 0.986390 0.764345 Fe
0.262956 0.513083 0.753518 Fe
0.747537 0.008249 0.751441 Fe
