../1-ideal/perfect-sqs-32/POSCAR
1.0
7.460495 -0.306641 -0.198758
0.125000 6.633133 0.087405
-0.197343 -0.389606 6.913424
Fe
32
direct
0.964378 0.030120 0.023504 Fe
0.530654 0.016274 0.007062 Fe
0.483674 0.067245 0.456197 Fe
0.464212 0.464235 0.032138 Fe
0.261844 0.751124 0.528408 Fe
0.795674 0.273644 0.566241 Fe
0.796790 0.705945 0.031338 Fe
0.728467 0.806711 0.496768 Fe
0.021775 0.731765 0.731060 Fe
0.552209 0.259307 0.712842 Fe
0.479631 0.714732 0.307119 Fe
0.439188 0.788745 0.764722 Fe
0.287631 0.567501 0.248385 Fe
0.794017 0.008170 0.266782 Fe
0.728009 0.513732 0.252147 Fe
0.766989 0.562253 0.810020 Fe
0.964763 0.976121 0.536767 Fe
0.955658 0.544031 0.976747 Fe
0.988753 0.556880 0.558079 Fe
0.431052 0.512418 0.486222 Fe
0.251514 0.262899 0.942901 Fe
0.273997 0.217620 0.515697 Fe
0.289009 0.758198 0.032114 Fe
0.686778 0.240719 0.042766 Fe
0.062875 0.286856 0.202941 Fe
0.939209 0.303576 0.712919 Fe
0.058131 0.693522 0.247297 Fe
0.541142 0.199530 0.217314 Fe
0.232465 0.963695 0.312533 Fe
0.238330 0.949142 0.813037 Fe
0.248487 0.517839 0.788010 Fe
0.695155 0.962970 0.755017 Fe
