../1-ideal/perfect-sqs-32/POSCAR
1.0
7.399220 0.303288 -0.279287
0.221957 7.115660 -0.099747
0.262012 -0.374744 6.513683
Fe
32
direct
0.049705 0.972109 0.955718 Fe
0.544981 0.029523 0.015473 Fe
0.462858 0.020951 0.462933 Fe
0.530727 0.506747 0.939120 Fe
0.246329 0.778737 0.451956 Fe
0.806652 0.309296 0.437633 Fe
0.759219 0.715658 0.963420 Fe
0.810960 0.711261 0.528182 Fe
0.965483 0.726262 0.732655 Fe
0.457463 0.261801 0.757117 Fe
0.537118 0.738007 0.193228 Fe
0.473686 0.784295 0.785378 Fe
0.209789 0.511481 0.227652 Fe
0.796954 0.988590 0.256878 Fe
0.719933 0.480241 0.241810 Fe
0.766397 0.496326 0.758363 Fe
0.009032 0.973797 0.469874 Fe
0.019327 0.503907 0.946423 Fe
0.004985 0.459841 0.491368 Fe
0.527546 0.496429 0.489363 Fe
0.203261 0.250077 0.033521 Fe
0.226472 0.290567 0.536943 Fe
0.202414 0.807055 0.023520 Fe
0.738146 0.198754 0.979924 Fe
0.966251 0.283044 0.304632 Fe
0.041155 0.232255 0.808183 Fe
0.052597 0.802082 0.283522 Fe
0.516002 0.244665 0.241349 Fe
0.307042 0.972381 0.229075 Fe
0.274010 0.002136 0.740006 Fe
0.242811 0.487437 0.715184 Fe
0.698413 0.011321 0.779364 Fe
