../1-ideal/perfect-sqs-32/POSCAR
   1.00000000000000
     6.7339044057687349    0.0428239140790820    0.4594805533484670
     0.2295158820449020    6.8893630259276941   -0.0293314244938570
     0.1220791564677350    0.1114926902906020    7.1806422765726312
   Fe   Fe
    16    16
Direct
  0.9405397175820767  0.0270156965726045  0.0493004042249936
  0.5186385076618549  0.0334278645996804  0.9526559326536628
  0.4657519644102734  0.9594964299674231  0.4546201527472675
  0.5088851860778831  0.4531909015299149  0.9979322550797249
  0.2097456944395972  0.7061138487905509  0.5270182130574739
  0.7788259556647930  0.2578427684155500  0.4405737798098244
  0.8094235544170161  0.7763527692122523  0.0489593000932302
  0.7084081473332802  0.7770275807550675  0.4543130080581008
  0.0419498063902353  0.7442362005571042  0.7255906435460915
  0.5062808229107318  0.3107375490488238  0.7189375950490700
  0.4973323735664579  0.7576681721121759  0.2989983704340631
  0.5261285638037165  0.7931922426550457  0.8052471333637783
  0.2956615975319110  0.5308254595895718  0.2246272597594370
  0.8125250409013915  0.0440114607167033  0.2048815119302674
  0.7448681508061128  0.4390104641970964  0.1907339967139237
  0.8032697408035929  0.4484690319355735  0.7382404499000472
  0.0493536444538663  0.9922657703574416  0.4997284247313445
  0.0339536173267305  0.4576734721326190  0.9736128338351904
  0.0073829081253223  0.4894245744122117  0.4732622153712427
  0.5517949028959492  0.4357197361197720  0.5287279568219532
  0.2805818921372207  0.2134780902392563  0.0436198313586118
  0.2113256835220980  0.2205590780365014  0.5062572796993265
  0.2114536839400714  0.7675024684982006  0.0575950709662365
  0.7729603842470425  0.2519365216816212  0.9485360714770437
  0.9608362198310800  0.2923648538433099  0.2437156631671868
  0.0547612725172257  0.3091253355174359  0.7619192669494907
  0.9856671154346941  0.7320978429988472  0.2641574993002678
  0.4371061454962657  0.2437621985540730  0.2577733999994720
  0.2339922332348365  0.0611910772244926  0.2970377468145955
  0.2162537389633812  0.9501629533172675  0.7192464475072171
  0.2564991354392490  0.5388485969419108  0.7796299030500649
  0.7701601427376659  0.9664727587945592  0.7189155051035740

  0.00000000E+00  0.00000000E+00  0.00000000E+00
  0.00000000E+00  0.00000000E+00  0.00000000E+00
  0.00000000E+00  0.00000000E+00  0.00000000E+00
  0.00000000E+00  0.00000000E+00  0.00000000E+00
  0.00000000E+00  0.00000000E+00  0.00000000E+00
  0.00000000E+00  0.00000000E+00  0.00000000E+00
  0.00000000E+00  0.00000000E+00  0.00000000E+00
  0.00000000E+00  0.00000000E+00  0.00000000E+00
  0.00000000E+00  0.00000000E+00  0.00000000E+00
  0.00000000E+00  0.00000000E+00  0.00000000E+00
  0.00000000E+00  0.00000000E+00  0.00000000E+00
  0.00000000E+00  0.00000000E+00  0.00000000E+00
  0.00000000E+00  0.00000000E+00  0.00000000E+00
  0.00000000E+00  0.00000000E+00  0.00000000E+00
  0.00000000E+00  0.00000000E+00  0.00000000E+00
  0.00000000E+00  0.00000000E+00  0.00000000E+00
  0.00000000E+00  0.00000000E+00  0.00000000E+00
  0.00000000E+00  0.00000000E+00  0.00000000E+00
  0.00000000E+00  0.00000000E+00  0.00000000E+00
  0.00000000E+00  0.00000000E+00  0.00000000E+00
  0.00000000E+00  0.00000000E+00  0.00000000E+00
  0.00000000E+00  0.00000000E+00  0.00000000E+00
  0.00000000E+00  0.00000000E+00  0.00000000E+00
  0.00000000E+00  0.00000000E+00  0.00000000E+00
  0.00000000E+00  0.00000000E+00  0.00000000E+00
  0.00000000E+00  0.00000000E+00  0.00000000E+00
  0.00000000E+00  0.00000000E+00  0.00000000E+00
  0.00000000E+00  0.00000000E+00  0.00000000E+00
  0.00000000E+00  0.00000000E+00  0.00000000E+00
  0.00000000E+00  0.00000000E+00  0.00000000E+00
  0.00000000E+00  0.00000000E+00  0.00000000E+00
  0.00000000E+00  0.00000000E+00  0.00000000E+00
