../1-ideal/perfect-sqs-32/POSCAR
1.0
7.009063 0.006747 0.251539
0.330183 7.123322 -0.003909
0.325397 -0.330897 6.853455
Fe
32
direct
0.027888 0.049049 0.018513 Fe
0.455798 0.978500 0.009349 Fe
0.470790 0.000012 0.455077 Fe
0.545141 0.496590 0.024400 Fe
0.227751 0.725032 0.452324 Fe
0.774476 0.280036 0.547005 Fe
0.798047 0.737911 0.053582 Fe
0.719762 0.716794 0.493249 Fe
0.955762 0.764831 0.750410 Fe
0.468677 0.258043 0.805113 Fe
0.532203 0.749845 0.249835 Fe
0.499512 0.800816 0.720663 Fe
0.209018 0.538488 0.278041 Fe
0.769408 0.046075 0.199101 Fe
0.739128 0.471142 0.204724 Fe
0.808499 0.502302 0.778762 Fe
0.971057 0.006988 0.489886 Fe
0.037809 0.507963 0.017963 Fe
0.010017 0.530663 0.483314 Fe
0.476362 0.469995 0.539382 Fe
0.248865 0.265035 0.043437 Fe
0.301348 0.248486 0.533856 Fe
0.259317 0.766256 0.979849 Fe
0.777365 0.306599 0.037174 Fe
0.017252 0.254591 0.228664 Fe
0.998820 0.246782 0.744380 Fe
0.011988 0.793516 0.260513 Fe
0.474170 0.236589 0.266371 Fe
0.282404 0.009688 0.299199 Fe
0.247739 0.971988 0.779365 Fe
0.201171 0.499371 0.783476 Fe
0.715748 0.971163 0.720050 Fe
