../1-ideal/perfect-sqs-32/POSCAR
1.0
7.088698 0.013345 -0.007533
0.018406 7.003685 0.019625
0.036100 -0.022569 6.920792
Fe
32
direct
0.992768 0.995191 0.995992 Fe
0.505011 0.998037 0.002329 Fe
0.499177 0.003404 0.496262 Fe
0.493468 0.504160 0.991177 Fe
0.253404 0.757008 0.510016 Fe
0.747092 0.247889 0.494697 Fe
0.753536 0.750917 0.993860 Fe
0.746265 0.744375 0.499124 Fe
0.991677 0.755028 0.740199 Fe
0.495581 0.245250 0.755263 Fe
0.493458 0.747045 0.252296 Fe
0.495673 0.747729 0.741700 Fe
0.254243 0.508147 0.243278 Fe
0.750981 0.002513 0.256055 Fe
0.754100 0.498680 0.253347 Fe
0.757237 0.496818 0.747884 Fe
0.996128 0.005069 0.492227 Fe
0.996387 0.503592 0.001584 Fe
0.996726 0.505353 0.502441 Fe
0.490052 0.492994 0.495654 Fe
0.252224 0.243794 0.004267 Fe
0.253233 0.242395 0.496909 Fe
0.247415 0.757993 0.001384 Fe
0.757297 0.253689 0.010121 Fe
0.004138 0.249765 0.250396 Fe
0.993164 0.248633 0.744187 Fe
0.993981 0.745634 0.245314 Fe
0.501585 0.250235 0.241458 Fe
0.259151 0.000165 0.246189 Fe
0.256870 0.002352 0.747755 Fe
0.247005 0.499303 0.756726 Fe
0.756579 0.998872 0.755953 Fe
