../1-ideal/perfect-sqs-32/POSCAR
   1.00000000000000
     7.0839896405534244   -0.0334374826373330   -0.0085341168998270
    -0.0187050557016510    6.9826958251875597   -0.0389171377460620
    -0.0056315155095700   -0.0194586861067380    6.9645277171709514
   Fe   Fe
    16    16
Direct
  0.9984772285659886  0.9995490055022316  0.9985568595555989
  0.4975198496166868  0.9982517369361048  0.9953855481997138
  0.5021343351356080  0.0006713582954347  0.4995763133357798
  0.4935714091877017  0.5019536532205251  0.9956079338669639
  0.2552578206911704  0.7481081366070157  0.5035036777946686
  0.7548937736578480  0.2549656609492317  0.5034530499335830
  0.7585577632852178  0.7541733146712630  0.0000263701259513
  0.7492866070494628  0.7507525438486766  0.5028445340552210
  0.9956849188814729  0.7477350947884887  0.7457873293404376
  0.5028817032546868  0.2453478364571069  0.7548126489982394
  0.5014761819327731  0.7544108979910433  0.2484859602325997
  0.5008659019215003  0.7522544398566069  0.7527268659810460
  0.2543689632275772  0.5016327348255629  0.2468254471640847
  0.7482242999242104  0.0053729057820249  0.2463154919579864
  0.7566874125733705  0.4982021471138793  0.2463849317169462
  0.7533318258208723  0.5016134452633381  0.7538669447794533
  0.0036794405234133  0.9967009651350835  0.4937614871737068
  0.0018069546019461  0.4977886674520420  0.0030171919249895
  0.9935318977397287  0.5013740806514093  0.5049101839617265
  0.4997392312028524  0.5041610420217353  0.5040304707033343
  0.2526595364895670  0.2500679256866789  0.9974347488813464
  0.2484413405682275  0.2433515738402932  0.4984670693122411
  0.2540813262025026  0.7534869700657936  0.9987147541435846
  0.7556595822810479  0.2513936841154987  0.0069854208263465
  0.9933069081318777  0.2546719968111688  0.2477896672619906
  0.9908325278098289  0.2554277365008986  0.7453631152637286
  0.0047466615131952  0.7441279797480718  0.2468296828918355
  0.5005241853640001  0.2479982178072504  0.2439647077450928
  0.2515026632613768  0.0001192042918632  0.2553325059726959
  0.2490277796782578  0.9960827565628350  0.7469560677136968
  0.2511687137594549  0.4995867362465631  0.7505805697455372
  0.7551988110210743  0.9963875658615251  0.7508027882346155

  0.00000000E+00  0.00000000E+00  0.00000000E+00
  0.00000000E+00  0.00000000E+00  0.00000000E+00
  0.00000000E+00  0.00000000E+00  0.00000000E+00
  0.00000000E+00  0.00000000E+00  0.00000000E+00
  0.00000000E+00  0.00000000E+00  0.00000000E+00
  0.00000000E+00  0.00000000E+00  0.00000000E+00
  0.00000000E+00  0.00000000E+00  0.00000000E+00
  0.00000000E+00  0.00000000E+00  0.00000000E+00
  0.00000000E+00  0.00000000E+00  0.00000000E+00
  0.00000000E+00  0.00000000E+00  0.00000000E+00
  0.00000000E+00  0.00000000E+00  0.00000000E+00
  0.00000000E+00  0.00000000E+00  0.00000000E+00
  0.00000000E+00  0.00000000E+00  0.00000000E+00
  0.00000000E+00  0.00000000E+00  0.00000000E+00
  0.00000000E+00  0.00000000E+00  0.00000000E+00
  0.00000000E+00  0.00000000E+00  0.00000000E+00
  0.00000000E+00  0.00000000E+00  0.00000000E+00
  0.00000000E+00  0.00000000E+00  0.00000000E+00
  0.00000000E+00  0.00000000E+00  0.00000000E+00
  0.00000000E+00  0.00000000E+00  0.00000000E+00
  0.00000000E+00  0.00000000E+00  0.00000000E+00
  0.00000000E+00  0.00000000E+00  0.00000000E+00
  0.00000000E+00  0.00000000E+00  0.00000000E+00
  0.00000000E+00  0.00000000E+00  0.00000000E+00
  0.00000000E+00  0.00000000E+00  0.00000000E+00
  0.00000000E+00  0.00000000E+00  0.00000000E+00
  0.00000000E+00  0.00000000E+00  0.00000000E+00
  0.00000000E+00  0.00000000E+00  0.00000000E+00
  0.00000000E+00  0.00000000E+00  0.00000000E+00
  0.00000000E+00  0.00000000E+00  0.00000000E+00
  0.00000000E+00  0.00000000E+00  0.00000000E+00
  0.00000000E+00  0.00000000E+00  0.00000000E+00
