../1-ideal/perfect-sqs-32/POSCAR
1.0
7.093598 0.076547 -0.099292
-0.125850 7.098528 -0.152754
0.076902 0.062303 7.052798
Fe
32
direct
0.007048 0.002201 0.984805 Fe
0.514165 0.984679 0.021951 Fe
0.483738 0.024293 0.511382 Fe
0.512680 0.511274 0.009494 Fe
0.274634 0.765087 0.495343 Fe
0.772066 0.267186 0.504567 Fe
0.767105 0.746525 0.995912 Fe
0.765195 0.767508 0.508550 Fe
0.020915 0.756218 0.764279 Fe
0.522339 0.248486 0.733909 Fe
0.482530 0.733528 0.263036 Fe
0.486258 0.747491 0.743388 Fe
0.233433 0.516282 0.271924 Fe
0.766991 0.003340 0.254560 Fe
0.768986 0.497787 0.230967 Fe
0.747648 0.518276 0.748283 Fe
0.984168 0.004114 0.509489 Fe
0.020441 0.521299 0.022720 Fe
0.994452 0.489442 0.480381 Fe
0.494313 0.508833 0.504979 Fe
0.234850 0.269563 0.017725 Fe
0.277765 0.242598 0.490475 Fe
0.258136 0.776141 0.003380 Fe
0.735699 0.258400 0.978682 Fe
0.973780 0.272373 0.233041 Fe
0.994378 0.226936 0.752423 Fe
0.021757 0.742815 0.261140 Fe
0.482669 0.240712 0.266215 Fe
0.249413 0.015236 0.271221 Fe
0.231684 0.010001 0.773107 Fe
0.248671 0.476626 0.748480 Fe
0.738991 0.003438 0.751845 Fe
