../1-ideal/perfect-sqs-32/POSCAR
1.0
7.363635 -0.158649 -0.391446
-0.250009 6.857256 0.225569
0.344451 -0.183197 7.187211
Fe
32
direct
0.934034 0.962342 0.985690 Fe
0.494750 0.061438 0.960238 Fe
0.522051 0.943753 0.482638 Fe
0.472480 0.442140 0.981822 Fe
0.275940 0.708879 0.542196 Fe
0.766549 0.189047 0.481804 Fe
0.723394 0.757988 0.023874 Fe
0.765744 0.765354 0.454700 Fe
0.028332 0.752698 0.775357 Fe
0.466624 0.276251 0.736959 Fe
0.507033 0.798088 0.272008 Fe
0.493609 0.754914 0.759367 Fe
0.270570 0.456121 0.192207 Fe
0.742490 0.004382 0.229051 Fe
0.718442 0.506715 0.229166 Fe
0.711662 0.464204 0.774550 Fe
0.037384 0.946856 0.446891 Fe
0.942340 0.562723 0.972210 Fe
0.964605 0.499895 0.474042 Fe
0.531694 0.533494 0.536368 Fe
0.280672 0.231661 0.996461 Fe
0.216562 0.278950 0.465584 Fe
0.282426 0.751227 0.027446 Fe
0.797087 0.251134 0.945440 Fe
0.963301 0.273392 0.228524 Fe
0.030399 0.227137 0.795749 Fe
0.021129 0.730194 0.273252 Fe
0.552798 0.282179 0.242990 Fe
0.251937 0.061805 0.194255 Fe
0.306177 0.015985 0.794820 Fe
0.215703 0.556429 0.722435 Fe
0.791055 0.036166 0.806391 Fe
