../1-ideal/perfect-sqs-32/POSCAR
1.0
7.213657 0.185914 -0.360879
0.297339 7.071571 0.058693
0.035238 0.117810 7.165755
Fe
32
direct
0.995056 0.945178 0.014539 Fe
0.465866 0.952917 0.054762 Fe
0.485291 0.029007 0.460087 Fe
0.467755 0.501165 0.991050 Fe
0.210268 0.802877 0.476061 Fe
0.797680 0.301168 0.498149 Fe
0.712524 0.765002 0.962362 Fe
0.746864 0.716356 0.445908 Fe
0.979563 0.799912 0.750185 Fe
0.496698 0.223068 0.779023 Fe
0.529935 0.774412 0.274768 Fe
0.441047 0.769423 0.804028 Fe
0.212075 0.445981 0.300085 Fe
0.723005 0.034980 0.198389 Fe
0.794356 0.547171 0.193534 Fe
0.722549 0.452977 0.694611 Fe
0.009665 0.976393 0.522037 Fe
0.964458 0.449888 0.969298 Fe
0.963011 0.476515 0.534858 Fe
0.540428 0.553234 0.446098 Fe
0.246682 0.256017 0.043658 Fe
0.294829 0.252958 0.446637 Fe
0.215078 0.751494 0.965337 Fe
0.792817 0.268217 0.022027 Fe
0.961378 0.308127 0.291793 Fe
0.943984 0.203998 0.734051 Fe
0.979121 0.764030 0.247891 Fe
0.507178 0.210634 0.281259 Fe
0.290805 0.980215 0.293004 Fe
0.270150 0.944664 0.717324 Fe
0.287934 0.538270 0.769250 Fe
0.793329 0.959387 0.704651 Fe
