../1-ideal/perfect-sqs-32/POSCAR
1.0
7.112461 -0.139056 0.285210
0.108909 6.966414 -0.238788
-0.080482 -0.229973 6.846416
Fe
32
direct
0.973628 0.970431 0.997367 Fe
0.504812 0.020398 0.979072 Fe
0.527664 0.973293 0.489590 Fe
0.463325 0.505951 0.036160 Fe
0.212397 0.710499 0.490554 Fe
0.770976 0.283156 0.531629 Fe
0.788258 0.751642 0.035487 Fe
0.778956 0.730796 0.510865 Fe
0.975019 0.743695 0.759049 Fe
0.531720 0.267919 0.786075 Fe
0.493957 0.713475 0.223171 Fe
0.458811 0.728095 0.768949 Fe
0.225694 0.469860 0.229681 Fe
0.744152 0.964419 0.237442 Fe
0.762559 0.475087 0.266773 Fe
0.733627 0.514637 0.727276 Fe
0.989543 0.012301 0.517157 Fe
0.982999 0.517569 0.012660 Fe
0.021416 0.517619 0.513710 Fe
0.476489 0.492924 0.461963 Fe
0.219136 0.242505 0.976208 Fe
0.278578 0.264198 0.461966 Fe
0.232289 0.764862 0.027663 Fe
0.731798 0.255714 0.004087 Fe
0.993146 0.242591 0.263601 Fe
0.999363 0.275153 0.791198 Fe
0.009229 0.734491 0.218480 Fe
0.472137 0.212801 0.272783 Fe
0.221151 0.972887 0.221375 Fe
0.260625 0.004449 0.761806 Fe
0.219828 0.531261 0.716702 Fe
0.732097 0.033885 0.744628 Fe
