../1-ideal/perfect-sqs-32/POSCAR
1.0
7.097596 -0.140234 0.025848
0.020409 6.951367 0.102760
-0.062352 -0.137522 6.886521
Fe
32
direct
0.015623 0.002818 0.986591 Fe
0.486934 0.022730 0.990050 Fe
0.509432 0.013874 0.485999 Fe
0.497092 0.501585 0.989745 Fe
0.257497 0.760172 0.493606 Fe
0.766410 0.250792 0.484122 Fe
0.742043 0.733033 0.013114 Fe
0.755699 0.746058 0.516290 Fe
0.006140 0.746181 0.729656 Fe
0.485987 0.232863 0.731280 Fe
0.496447 0.769528 0.269954 Fe
0.485583 0.769871 0.741368 Fe
0.240498 0.493748 0.256060 Fe
0.762879 0.011333 0.252713 Fe
0.744011 0.484743 0.244007 Fe
0.759334 0.517223 0.743306 Fe
0.989364 0.015414 0.477950 Fe
0.004414 0.484669 0.015430 Fe
0.001453 0.506921 0.518968 Fe
0.504957 0.498628 0.482211 Fe
0.235829 0.248829 0.002877 Fe
0.274842 0.267158 0.501729 Fe
0.254367 0.755198 0.981115 Fe
0.742528 0.242562 0.007933 Fe
0.977339 0.271426 0.254633 Fe
0.016943 0.239564 0.757649 Fe
0.987910 0.745973 0.252723 Fe
0.496062 0.264108 0.254692 Fe
0.249110 0.992044 0.245300 Fe
0.253005 0.983862 0.748816 Fe
0.254066 0.491124 0.759515 Fe
0.772078 0.993704 0.733019 Fe
