../1-ideal/perfect-sqs-32/POSCAR
   1.00000000000000
     7.5694033350316801    0.2150410987644600    0.4375048631031050
    -0.3141616416154680    7.2958214946690347    0.3696825670356220
    -0.3924986870313810    0.3185963794874140    6.5839938975005570
   Fe   Fe
    16    16
Direct
  0.9656778172298743  0.9364707487223569  0.9681069450351458
  0.4858947278218793  0.0405552183518978  0.0304641605337110
  0.4736528673711788  0.9773639895904296  0.5120154653115350
  0.4898286124560514  0.4769227097121771  0.0544331298857799
  0.2179712985831728  0.8007251382313640  0.4840322692488712
  0.7970578462442930  0.1919766058369632  0.5037659126641998
  0.7027621221174627  0.7816439256342065  0.9324366486662683
  0.8167443567683677  0.8103507207244647  0.5330349865706268
  0.9657650598703498  0.8101674346953587  0.7722466753727275
  0.5361371575832052  0.2831158220326913  0.7952202818879286
  0.4850961971981747  0.7522374970044368  0.2005877780349579
  0.4651421710750228  0.7455157326932849  0.8123290181516296
  0.2615902741454335  0.5311493085653680  0.2186616340793748
  0.8005417096910605  0.9385951959571273  0.2750760602387530
  0.8110262794344223  0.4496872806935812  0.2426557312794344
  0.7792118118380102  0.4462618972082026  0.7308980912757690
  0.9885987650022443  0.0224799793060768  0.5563944677796471
  0.0212922917714735  0.4791424218568423  0.0461942392762040
  0.9918036312651495  0.4440648351527230  0.5029467968109671
  0.5045367202061470  0.4910916616104402  0.5305455753265065
  0.2963081589953163  0.2606477131086748  0.0689928464153411
  0.2236054633963320  0.1842047448311774  0.5172652591563534
  0.3114262883953032  0.7895297580857701  0.9400672351309751
  0.7699229953833537  0.2285222715731265  0.9554974953363669
  0.0384940136799017  0.2912643861144915  0.2753655075210091
  0.9946243775584094  0.2296535308223326  0.6859503859707488
  0.9383944000825437  0.7407276179504976  0.2791348847842769
  0.5119164668723073  0.1892079014027530  0.2393919972309249
  0.2055308013823094  0.9791616346291931  0.2698793527383003
  0.2805383975620259  0.0091525544272315  0.7008133649825652
  0.2808759632667304  0.4915242931345389  0.7085925384976761
  0.7126740642309173  0.9545329806120151  0.7490961915860126

  0.00000000E+00  0.00000000E+00  0.00000000E+00
  0.00000000E+00  0.00000000E+00  0.00000000E+00
  0.00000000E+00  0.00000000E+00  0.00000000E+00
  0.00000000E+00  0.00000000E+00  0.00000000E+00
  0.00000000E+00  0.00000000E+00  0.00000000E+00
  0.00000000E+00  0.00000000E+00  0.00000000E+00
  0.00000000E+00  0.00000000E+00  0.00000000E+00
  0.00000000E+00  0.00000000E+00  0.00000000E+00
  0.00000000E+00  0.00000000E+00  0.00000000E+00
  0.00000000E+00  0.00000000E+00  0.00000000E+00
  0.00000000E+00  0.00000000E+00  0.00000000E+00
  0.00000000E+00  0.00000000E+00  0.00000000E+00
  0.00000000E+00  0.00000000E+00  0.00000000E+00
  0.00000000E+00  0.00000000E+00  0.00000000E+00
  0.00000000E+00  0.00000000E+00  0.00000000E+00
  0.00000000E+00  0.00000000E+00  0.00000000E+00
  0.00000000E+00  0.00000000E+00  0.00000000E+00
  0.00000000E+00  0.00000000E+00  0.00000000E+00
  0.00000000E+00  0.00000000E+00  0.00000000E+00
  0.00000000E+00  0.00000000E+00  0.00000000E+00
  0.00000000E+00  0.00000000E+00  0.00000000E+00
  0.00000000E+00  0.00000000E+00  0.00000000E+00
  0.00000000E+00  0.00000000E+00  0.00000000E+00
  0.00000000E+00  0.00000000E+00  0.00000000E+00
  0.00000000E+00  0.00000000E+00  0.00000000E+00
  0.00000000E+00  0.00000000E+00  0.00000000E+00
  0.00000000E+00  0.00000000E+00  0.00000000E+00
  0.00000000E+00  0.00000000E+00  0.00000000E+00
  0.00000000E+00  0.00000000E+00  0.00000000E+00
  0.00000000E+00  0.00000000E+00  0.00000000E+00
  0.00000000E+00  0.00000000E+00  0.00000000E+00
  0.00000000E+00  0.00000000E+00  0.00000000E+00
