../1-ideal/perfect-sqs-32/POSCAR
1.0
7.095636 0.157826 0.237008
0.033188 6.792908 0.251730
0.190680 -0.169284 6.652307
Fe
32
direct
0.038077 0.984557 0.983529 Fe
0.538264 0.044011 0.001866 Fe
0.521880 0.002585 0.511382 Fe
0.466464 0.458563 0.963767 Fe
0.232737 0.783532 0.544181 Fe
0.719214 0.220202 0.532876 Fe
0.718302 0.761873 0.977396 Fe
0.751108 0.753801 0.516577 Fe
0.028443 0.762514 0.707691 Fe
0.484471 0.229415 0.759051 Fe
0.459612 0.716312 0.292409 Fe
0.521417 0.762090 0.769117 Fe
0.280617 0.467849 0.224352 Fe
0.793955 0.962501 0.276815 Fe
0.719209 0.496787 0.258007 Fe
0.754148 0.513566 0.715868 Fe
0.952952 0.021245 0.532324 Fe
0.007664 0.505150 0.978912 Fe
0.037193 0.467081 0.538769 Fe
0.517722 0.455342 0.521858 Fe
0.268761 0.205951 0.010089 Fe
0.256361 0.272551 0.480865 Fe
0.230053 0.792498 0.043751 Fe
0.712917 0.245640 0.042580 Fe
0.981723 0.288541 0.211220 Fe
0.952980 0.247258 0.764611 Fe
0.026270 0.706065 0.220654 Fe
0.490773 0.270902 0.208305 Fe
0.234840 0.969095 0.204034 Fe
0.283864 0.967746 0.743738 Fe
0.231729 0.483461 0.765921 Fe
0.763645 0.003468 0.789735 Fe
