../1-ideal/perfect-sqs-32/POSCAR
1.0
7.181621 -0.039405 -0.106669
0.097343 7.085985 -0.045953
0.065822 0.097635 6.883339
Fe
32
direct
0.997795 0.000121 0.984610 Fe
0.496763 0.015143 0.990333 Fe
0.500694 0.014844 0.501084 Fe
0.491702 0.515607 0.991999 Fe
0.245798 0.733078 0.518564 Fe
0.742254 0.243639 0.509147 Fe
0.749798 0.741171 0.997431 Fe
0.766032 0.745949 0.491707 Fe
0.983042 0.739920 0.742078 Fe
0.508190 0.249559 0.770690 Fe
0.503721 0.738417 0.254901 Fe
0.512514 0.736808 0.748004 Fe
0.249072 0.487674 0.247546 Fe
0.762245 0.982118 0.258336 Fe
0.746835 0.505016 0.237745 Fe
0.754604 0.486942 0.743375 Fe
0.005596 0.995665 0.486817 Fe
0.983704 0.488849 0.988389 Fe
0.987582 0.517516 0.494549 Fe
0.503218 0.497647 0.516814 Fe
0.246300 0.243084 0.987695 Fe
0.255082 0.230129 0.502513 Fe
0.251845 0.769067 0.983727 Fe
0.749561 0.241097 0.012837 Fe
0.985280 0.252881 0.250607 Fe
0.995836 0.267135 0.760576 Fe
0.010503 0.763447 0.236310 Fe
0.509930 0.251307 0.258880 Fe
0.249242 0.988763 0.233475 Fe
0.250574 0.012872 0.737381 Fe
0.240154 0.514437 0.737423 Fe
0.760833 0.993124 0.739971 Fe
