../1-ideal/perfect-sqs-32/POSCAR
1.0
7.188654 0.362289 0.127768
-0.343442 7.030769 -0.123873
-0.295770 -0.225945 7.079133
Fe
32
direct
0.953860 0.981867 0.051883 Fe
0.495660 0.000635 0.970725 Fe
0.462110 0.979715 0.533812 Fe
0.447385 0.440914 0.013720 Fe
0.203074 0.719011 0.490323 Fe
0.785796 0.290777 0.539466 Fe
0.707406 0.790811 0.951396 Fe
0.719586 0.715198 0.512504 Fe
0.972671 0.765261 0.708234 Fe
0.501414 0.250577 0.721737 Fe
0.516860 0.702448 0.280962 Fe
0.513608 0.743839 0.703473 Fe
0.212153 0.545827 0.210901 Fe
0.764892 0.011329 0.192925 Fe
0.744362 0.513493 0.257035 Fe
0.737176 0.490005 0.795120 Fe
0.963142 0.957483 0.550774 Fe
0.950242 0.523916 0.972617 Fe
0.002586 0.514307 0.539011 Fe
0.477643 0.543820 0.443513 Fe
0.204236 0.249495 0.959761 Fe
0.223943 0.234856 0.476270 Fe
0.235184 0.767342 0.045609 Fe
0.726037 0.268908 0.008371 Fe
0.950584 0.261896 0.294838 Fe
0.028253 0.306329 0.770287 Fe
0.984181 0.700579 0.210264 Fe
0.493826 0.262307 0.218054 Fe
0.228168 0.970926 0.268731 Fe
0.214883 0.050361 0.729759 Fe
0.268320 0.551541 0.763960 Fe
0.699888 0.056947 0.718466 Fe
