../1-ideal/perfect-sqs-32/POSCAR
1.0
6.859354 -0.022534 0.111113
0.051756 6.901006 0.186038
-0.026684 -0.239122 7.111409
Fe
32
direct
0.982117 0.028199 0.972665 Fe
0.520334 0.025351 0.033833 Fe
0.475433 0.023840 0.461743 Fe
0.479690 0.487554 0.998662 Fe
0.251300 0.774741 0.502037 Fe
0.788704 0.290408 0.466434 Fe
0.770847 0.787783 0.024340 Fe
0.743334 0.746056 0.482501 Fe
0.995527 0.727195 0.758785 Fe
0.460859 0.242388 0.774698 Fe
0.498611 0.774341 0.271629 Fe
0.504243 0.762867 0.786745 Fe
0.291705 0.499136 0.215949 Fe
0.749938 0.962109 0.228365 Fe
0.736061 0.495983 0.264176 Fe
0.750307 0.490614 0.753192 Fe
0.988977 0.969957 0.514551 Fe
0.971774 0.494025 0.036555 Fe
0.030562 0.464504 0.491492 Fe
0.530718 0.490550 0.532534 Fe
0.289445 0.215467 0.039855 Fe
0.230118 0.244667 0.501362 Fe
0.256254 0.770178 0.998167 Fe
0.774384 0.243981 0.990005 Fe
0.985364 0.286461 0.263041 Fe
0.001947 0.288685 0.785173 Fe
0.980680 0.739298 0.238071 Fe
0.472211 0.237257 0.226357 Fe
0.262260 0.013255 0.267021 Fe
0.240638 0.018074 0.747085 Fe
0.280453 0.540366 0.754339 Fe
0.721874 0.992581 0.751237 Fe
