../1-ideal/perfect-sqs-32/POSCAR
1.0
7.103447 0.026158 -0.010926
0.003348 6.982498 -0.049389
0.043281 0.000951 6.940130
Fe
32
direct
0.987759 0.001096 0.009569 Fe
0.500363 0.999312 0.996478 Fe
0.489001 0.000261 0.508875 Fe
0.491198 0.506917 0.000790 Fe
0.260443 0.752875 0.504229 Fe
0.748284 0.260294 0.496508 Fe
0.751197 0.747646 0.994817 Fe
0.748693 0.756255 0.494551 Fe
0.998248 0.749358 0.745708 Fe
0.496457 0.241197 0.745792 Fe
0.490449 0.752862 0.246604 Fe
0.492715 0.755899 0.756868 Fe
0.260674 0.496132 0.254780 Fe
0.746630 0.003497 0.256626 Fe
0.744096 0.505010 0.260141 Fe
0.755558 0.492277 0.748815 Fe
0.996818 0.996489 0.499231 Fe
0.003379 0.507266 0.997474 Fe
0.991905 0.494195 0.492158 Fe
0.488496 0.505865 0.507210 Fe
0.245883 0.241446 0.992757 Fe
0.246191 0.240120 0.501143 Fe
0.257824 0.750000 0.993272 Fe
0.760213 0.243814 0.999993 Fe
0.999068 0.248332 0.244172 Fe
0.004695 0.242385 0.758736 Fe
0.004830 0.744680 0.248851 Fe
0.502200 0.256381 0.251795 Fe
0.246627 0.007853 0.257029 Fe
0.248466 0.992854 0.759618 Fe
0.249571 0.494452 0.745686 Fe
0.755205 0.009821 0.750039 Fe
