../1-ideal/perfect-sqs-32/POSCAR
1.0
6.663296 0.190960 -0.405197
0.352852 7.318037 0.074712
0.508084 0.290991 7.352907
Fe
32
direct
0.051891 0.020050 0.964269 Fe
0.547335 0.941497 0.013242 Fe
0.469442 0.013632 0.455697 Fe
0.533809 0.488365 0.942580 Fe
0.239316 0.774941 0.557604 Fe
0.788598 0.321811 0.529235 Fe
0.737638 0.751050 0.929544 Fe
0.794465 0.753643 0.451324 Fe
0.983503 0.702886 0.789037 Fe
0.433221 0.195818 0.789652 Fe
0.456715 0.689137 0.207039 Fe
0.514829 0.778863 0.730577 Fe
0.266609 0.450297 0.278504 Fe
0.723391 0.014271 0.198176 Fe
0.728209 0.455055 0.252019 Fe
0.805375 0.437243 0.799012 Fe
0.988847 0.022732 0.560498 Fe
0.946606 0.564471 0.054304 Fe
0.971888 0.533787 0.559423 Fe
0.564881 0.563667 0.502513 Fe
0.210030 0.247053 0.948520 Fe
0.243833 0.262558 0.534991 Fe
0.226472 0.755814 0.029237 Fe
0.738888 0.223081 0.050092 Fe
0.975315 0.276907 0.264067 Fe
0.983433 0.261542 0.685020 Fe
0.028402 0.738088 0.311766 Fe
0.539444 0.306680 0.269428 Fe
0.254015 0.040588 0.204484 Fe
0.303544 0.022256 0.754559 Fe
0.186044 0.438793 0.806027 Fe
0.687498 0.953848 0.741362 Fe
