../1-ideal/perfect-sqs-32/POSCAR
1.0
7.088206 -0.076232 -0.239176
0.130635 7.265816 -0.103264
0.123816 -0.005950 6.770222
Fe
32
direct
0.988322 0.013113 0.954556 Fe
0.454983 0.986302 0.961868 Fe
0.454139 0.958963 0.480988 Fe
0.457831 0.473644 0.966071 Fe
0.217805 0.750757 0.463270 Fe
0.714255 0.234959 0.475862 Fe
0.742292 0.726506 0.004123 Fe
0.797217 0.768958 0.516933 Fe
0.974874 0.770369 0.729911 Fe
0.487793 0.266906 0.784803 Fe
0.479454 0.792140 0.234156 Fe
0.457498 0.773873 0.739403 Fe
0.247287 0.491459 0.219397 Fe
0.761782 0.018722 0.289900 Fe
0.755863 0.543412 0.247494 Fe
0.767786 0.471979 0.708144 Fe
0.981525 0.956907 0.475173 Fe
0.028497 0.513440 0.031388 Fe
0.980134 0.503094 0.492981 Fe
0.473572 0.454165 0.474908 Fe
0.289280 0.234087 0.978353 Fe
0.215306 0.250876 0.511232 Fe
0.239979 0.710755 0.982513 Fe
0.730747 0.290652 0.983459 Fe
0.980090 0.273299 0.287760 Fe
0.041756 0.275096 0.783609 Fe
0.964243 0.719685 0.293506 Fe
0.537299 0.284640 0.226466 Fe
0.294958 0.022057 0.224819 Fe
0.207965 0.983807 0.767864 Fe
0.252798 0.511791 0.715773 Fe
0.743027 0.991113 0.711015 Fe
