../1-ideal/perfect-sqs-32/POSCAR
1.0
7.227742 -0.116498 -0.120387
-0.311858 7.271023 0.196468
0.296865 0.250488 6.797443
Fe
32
direct
0.964739 0.982953 0.026144 Fe
0.494580 0.964750 0.004234 Fe
0.527730 0.989613 0.529116 Fe
0.471915 0.477549 0.021634 Fe
0.267846 0.770488 0.468170 Fe
0.730022 0.254626 0.524875 Fe
0.780384 0.731334 0.023491 Fe
0.788585 0.776868 0.537918 Fe
0.994594 0.715377 0.731260 Fe
0.472786 0.247646 0.712490 Fe
0.497099 0.782261 0.270739 Fe
0.526386 0.730336 0.727427 Fe
0.227909 0.521515 0.213228 Fe
0.744877 0.018944 0.225566 Fe
0.762163 0.521354 0.247756 Fe
0.775452 0.467034 0.768622 Fe
0.021168 0.997959 0.535573 Fe
0.988621 0.493249 0.005780 Fe
0.039864 0.470431 0.519937 Fe
0.503995 0.458712 0.496946 Fe
0.289406 0.286925 0.039400 Fe
0.241008 0.209382 0.534948 Fe
0.209110 0.732707 0.021353 Fe
0.773059 0.249513 0.042233 Fe
0.020784 0.261692 0.254475 Fe
0.994060 0.285530 0.733868 Fe
0.970606 0.770797 0.239245 Fe
0.537130 0.239032 0.250946 Fe
0.229596 0.010588 0.265784 Fe
0.286219 0.961473 0.779902 Fe
0.232353 0.487622 0.727639 Fe
0.745773 0.026874 0.786481 Fe
