../1-ideal/perfect-sqs-32/POSCAR
   1.00000000000000
     7.2129707426863341   -0.1118526506734610   -0.0109234110065610
     0.0105123354773130    7.0186839523441167   -0.0190304091361530
    -0.0733370131170510   -0.0453394273830740    6.8851020743210452
   Fe   Fe
    16    16
Direct
  0.9910515218135956  0.0050514358568918  0.0103119096462549
  0.5130744648525294  0.0000130780157761  0.9977784707128379
  0.5019832235515267  0.0137088339334781  0.5112619927749620
  0.4977742912102698  0.4846370385581622  0.0059356688252521
  0.2413844702816732  0.7442415828733076  0.4948049265490440
  0.7583590208542432  0.2444237350589091  0.4981728070763225
  0.7539378766428655  0.7426059587349272  0.9853540260900786
  0.7645541946326020  0.7396288588765714  0.4913162836408418
  0.9910861449215034  0.7405121388562534  0.7321707652934464
  0.5006642827933945  0.2377524299194747  0.7559694977261984
  0.5048740432324408  0.7551028386781198  0.2403022536697321
  0.4930780685164464  0.7422690894201196  0.7339262236477069
  0.2421122767475481  0.5161106944500986  0.2611240499156793
  0.7658843902619950  0.0160607418499410  0.2574237070331833
  0.7388228103029064  0.4923858622858290  0.2623998736672490
  0.7528245646930429  0.5004205768731680  0.7570728437798948
  0.0008938485332521  0.9861499473616178  0.4984116616146963
  0.0059275801823233  0.4902384642561231  0.9973213544690296
  0.0022304150519261  0.5110565872122876  0.4944534060401722
  0.5026998065569046  0.5085107477872270  0.4921998494387054
  0.2521396587363967  0.2606822149377521  0.0004599208563079
  0.2498773172770257  0.2470569178385276  0.5052711424526350
  0.2532185428147002  0.7407160803648054  0.0032647643427808
  0.7581761233973978  0.2636571232605220  0.0055536556676614
  0.9975404018219365  0.2413274917699795  0.2464845658808557
  0.0004055875380544  0.2612151081220659  0.7367454733068115
  0.9943233699746017  0.7459295744501730  0.2371296570753074
  0.5030621722176534  0.2376072036004047  0.2552547137058170
  0.2432609799251608  0.9867850416076180  0.2364866975622988
  0.2611507542724496  0.0091476918806350  0.7572640175314760
  0.2540139539171093  0.5110819181954511  0.7425449675094313
  0.7445341567494879  0.0077408242534744  0.7506084153853578

  0.00000000E+00  0.00000000E+00  0.00000000E+00
  0.00000000E+00  0.00000000E+00  0.00000000E+00
  0.00000000E+00  0.00000000E+00  0.00000000E+00
  0.00000000E+00  0.00000000E+00  0.00000000E+00
  0.00000000E+00  0.00000000E+00  0.00000000E+00
  0.00000000E+00  0.00000000E+00  0.00000000E+00
  0.00000000E+00  0.00000000E+00  0.00000000E+00
  0.00000000E+00  0.00000000E+00  0.00000000E+00
  0.00000000E+00  0.00000000E+00  0.00000000E+00
  0.00000000E+00  0.00000000E+00  0.00000000E+00
  0.00000000E+00  0.00000000E+00  0.00000000E+00
  0.00000000E+00  0.00000000E+00  0.00000000E+00
  0.00000000E+00  0.00000000E+00  0.00000000E+00
  0.00000000E+00  0.00000000E+00  0.00000000E+00
  0.00000000E+00  0.00000000E+00  0.00000000E+00
  0.00000000E+00  0.00000000E+00  0.00000000E+00
  0.00000000E+00  0.00000000E+00  0.00000000E+00
  0.00000000E+00  0.00000000E+00  0.00000000E+00
  0.00000000E+00  0.00000000E+00  0.00000000E+00
  0.00000000E+00  0.00000000E+00  0.00000000E+00
  0.00000000E+00  0.00000000E+00  0.00000000E+00
  0.00000000E+00  0.00000000E+00  0.00000000E+00
  0.00000000E+00  0.00000000E+00  0.00000000E+00
  0.00000000E+00  0.00000000E+00  0.00000000E+00
  0.00000000E+00  0.00000000E+00  0.00000000E+00
  0.00000000E+00  0.00000000E+00  0.00000000E+00
  0.00000000E+00  0.00000000E+00  0.00000000E+00
  0.00000000E+00  0.00000000E+00  0.00000000E+00
  0.00000000E+00  0.00000000E+00  0.00000000E+00
  0.00000000E+00  0.00000000E+00  0.00000000E+00
  0.00000000E+00  0.00000000E+00  0.00000000E+00
  0.00000000E+00  0.00000000E+00  0.00000000E+00
