../1-ideal/perfect-sqs-32/POSCAR
   1.00000000000000
     7.0766999889470767   -0.2267675675076910    0.0882704055690690
     0.1560954900418350    7.0888013925510647   -0.2477564703987790
    -0.0497868675877970    0.1694768690429750    6.9189540212848604
   Fe   Fe
    16    16
Direct
  0.9698053253267602  0.9705298557924209  0.0011718140051400
  0.5024104378100844  0.0313872590343394  0.9867662032581350
  0.4885525702653268  0.0037108618593180  0.4814200955454169
  0.5121095020066662  0.4727154749697817  0.0048008015090133
  0.2868051666863423  0.7783754716010591  0.4806796967835965
  0.7201742993848157  0.2765461188989917  0.5280248334111093
  0.7216362190733534  0.7689005627988337  0.9761631587168367
  0.7745755010004132  0.7696201182725488  0.5250509603377367
  0.0076448152989954  0.7331451281469796  0.7508440873597593
  0.5216091114337686  0.2530282613003578  0.7406764690295446
  0.5188268833889538  0.7235854484354505  0.2319188961965466
  0.5097858564223898  0.7310586369179930  0.7203136196569488
  0.2525023180177541  0.5359119797802947  0.2274026257510897
  0.7660944837248422  0.0011419103257353  0.2865378229873201
  0.7445808844451989  0.4935866602748220  0.2683581694562065
  0.7613456895903283  0.4999740718607271  0.7675912529859659
  0.0256864192883057  0.0206452700964448  0.5069629766634236
  0.0134455020915638  0.5197763873383181  0.0269893699893515
  0.9671206405251382  0.4766863388530354  0.5202428850559926
  0.5130627922227191  0.5047118154486228  0.5054309567900148
  0.2385689821019454  0.2779521597208614  0.0308417126639924
  0.2490792130281037  0.2759661167066554  0.5297566806175951
  0.2552709092438263  0.7575813225711343  0.9937290327431683
  0.7598151840893763  0.2176550515564273  0.0043291710331914
  0.0120809355049332  0.2504809414439535  0.2607772885417532
  0.0307610211251230  0.2324923057949846  0.7616255550413911
  0.9995589822987014  0.7504163787220435  0.2386093176407726
  0.5277348750014070  0.2700074780694521  0.2640574209431463
  0.2854392761044906  0.9924481326710861  0.2408219974707606
  0.2487707012558928  0.0213541793090073  0.7719117665506161
  0.2193680729705392  0.4796964001732462  0.7740159939025588
  0.7405196248213315  0.0187859352076956  0.7762292655056413

  0.00000000E+00  0.00000000E+00  0.00000000E+00
  0.00000000E+00  0.00000000E+00  0.00000000E+00
  0.00000000E+00  0.00000000E+00  0.00000000E+00
  0.00000000E+00  0.00000000E+00  0.00000000E+00
  0.00000000E+00  0.00000000E+00  0.00000000E+00
  0.00000000E+00  0.00000000E+00  0.00000000E+00
  0.00000000E+00  0.00000000E+00  0.00000000E+00
  0.00000000E+00  0.00000000E+00  0.00000000E+00
  0.00000000E+00  0.00000000E+00  0.00000000E+00
  0.00000000E+00  0.00000000E+00  0.00000000E+00
  0.00000000E+00  0.00000000E+00  0.00000000E+00
  0.00000000E+00  0.00000000E+00  0.00000000E+00
  0.00000000E+00  0.00000000E+00  0.00000000E+00
  0.00000000E+00  0.00000000E+00  0.00000000E+00
  0.00000000E+00  0.00000000E+00  0.00000000E+00
  0.00000000E+00  0.00000000E+00  0.00000000E+00
  0.00000000E+00  0.00000000E+00  0.00000000E+00
  0.00000000E+00  0.00000000E+00  0.00000000E+00
  0.00000000E+00  0.00000000E+00  0.00000000E+00
  0.00000000E+00  0.00000000E+00  0.00000000E+00
  0.00000000E+00  0.00000000E+00  0.00000000E+00
  0.00000000E+00  0.00000000E+00  0.00000000E+00
  0.00000000E+00  0.00000000E+00  0.00000000E+00
  0.00000000E+00  0.00000000E+00  0.00000000E+00
  0.00000000E+00  0.00000000E+00  0.00000000E+00
  0.00000000E+00  0.00000000E+00  0.00000000E+00
  0.00000000E+00  0.00000000E+00  0.00000000E+00
  0.00000000E+00  0.00000000E+00  0.00000000E+00
  0.00000000E+00  0.00000000E+00  0.00000000E+00
  0.00000000E+00  0.00000000E+00  0.00000000E+00
  0.00000000E+00  0.00000000E+00  0.00000000E+00
  0.00000000E+00  0.00000000E+00  0.00000000E+00
