../1-ideal/perfect-sqs-32/POSCAR
   1.00000000000000
     7.1061613386509341    0.0014417882144430    0.0173623859156770
    -0.0097119629531250    7.0135247017222611   -0.0420365893073610
     0.0104791451807800    0.0083925851981710    6.9427936610094969
   Fe   Fe
    16    16
Direct
  0.9989731663717976  0.0024746173646122  0.9984615202412002
  0.5017957145411387  0.0046748463710955  0.9983752343686874
  0.4942110066524279  0.9993506694446808  0.5013941462821094
  0.4990478200387614  0.4971629164724476  0.0013246843541594
  0.2558000956849256  0.7533494732407462  0.5064230454905854
  0.7501474331092695  0.2508788756629201  0.4975717675916513
  0.7579168781637549  0.7495117906044726  0.9952528088615082
  0.7528976390058375  0.7506373855219053  0.5037015471216222
  0.9996345665522028  0.7526164941216109  0.7457793785019291
  0.4972118949728213  0.2447532518122273  0.7541432266206272
  0.4970812981124766  0.7480797475781955  0.2483915519930093
  0.4960820828625785  0.7481861446806590  0.7499479998300842
  0.2575334660341255  0.5004424641494083  0.2499390126882872
  0.7489068649654484  0.0019643677870178  0.2509771112736630
  0.7478924426700573  0.4954478439199264  0.2493560928615537
  0.7512170763434582  0.4977998406122737  0.7503904691610401
  0.9958026771463935  0.0016826173764954  0.4973320311741247
  0.9951322645320602  0.4974834740810863  0.0030777726313005
  0.0003709820620017  0.5003562963285759  0.5018183255703974
  0.4932478753178486  0.5006465194525447  0.4993432839303154
  0.2522040194381390  0.2479365960915914  0.9998293322280034
  0.2543333923145212  0.2459453569608598  0.4953032421782240
  0.2488875905077848  0.7489341356113499  0.0007215657577788
  0.7510189537925456  0.2548233793847174  0.9996919358900840
  0.9977146200777085  0.2554509374915810  0.2452420559587267
  0.9939146896759823  0.2497585198185064  0.7492093710636354
  0.9964099041519887  0.7523549450672107  0.2505257428480050
  0.4941125214529976  0.2526636721666620  0.2443035699741500
  0.2551425659260644  0.0004375837539285  0.2473873984323944
  0.2482724423354057  0.9981769428697334  0.7511762469825172
  0.2557246880553450  0.4993912906476439  0.7558693161304788
  0.7529109939643348  0.9980241976159547  0.7473478369821294

  0.00000000E+00  0.00000000E+00  0.00000000E+00
  0.00000000E+00  0.00000000E+00  0.00000000E+00
  0.00000000E+00  0.00000000E+00  0.00000000E+00
  0.00000000E+00  0.00000000E+00  0.00000000E+00
  0.00000000E+00  0.00000000E+00  0.00000000E+00
  0.00000000E+00  0.00000000E+00  0.00000000E+00
  0.00000000E+00  0.00000000E+00  0.00000000E+00
  0.00000000E+00  0.00000000E+00  0.00000000E+00
  0.00000000E+00  0.00000000E+00  0.00000000E+00
  0.00000000E+00  0.00000000E+00  0.00000000E+00
  0.00000000E+00  0.00000000E+00  0.00000000E+00
  0.00000000E+00  0.00000000E+00  0.00000000E+00
  0.00000000E+00  0.00000000E+00  0.00000000E+00
  0.00000000E+00  0.00000000E+00  0.00000000E+00
  0.00000000E+00  0.00000000E+00  0.00000000E+00
  0.00000000E+00  0.00000000E+00  0.00000000E+00
  0.00000000E+00  0.00000000E+00  0.00000000E+00
  0.00000000E+00  0.00000000E+00  0.00000000E+00
  0.00000000E+00  0.00000000E+00  0.00000000E+00
  0.00000000E+00  0.00000000E+00  0.00000000E+00
  0.00000000E+00  0.00000000E+00  0.00000000E+00
  0.00000000E+00  0.00000000E+00  0.00000000E+00
  0.00000000E+00  0.00000000E+00  0.00000000E+00
  0.00000000E+00  0.00000000E+00  0.00000000E+00
  0.00000000E+00  0.00000000E+00  0.00000000E+00
  0.00000000E+00  0.00000000E+00  0.00000000E+00
  0.00000000E+00  0.00000000E+00  0.00000000E+00
  0.00000000E+00  0.00000000E+00  0.00000000E+00
  0.00000000E+00  0.00000000E+00  0.00000000E+00
  0.00000000E+00  0.00000000E+00  0.00000000E+00
  0.00000000E+00  0.00000000E+00  0.00000000E+00
  0.00000000E+00  0.00000000E+00  0.00000000E+00
