../1-ideal/perfect-sqs-32/POSCAR
   1.00000000000000
     7.1492683181428864    0.1217070118864350   -0.0141653490115450
     0.0149340620419920    7.0231700170329132   -0.1421044355826130
     0.1047718716534940   -0.0594990064829040    6.7901316214410281
   Fe   Fe
    16    16
Direct
  0.0012828986464442  0.9869026091461635  0.0171943341806653
  0.4903345805739363  0.0143433768735832  0.9950833764688696
  0.5155244040619564  0.9954947496624911  0.4895791340222075
  0.5039764285222432  0.4976946308227355  0.0027714946729844
  0.2577322402294939  0.7522359947961945  0.5224260596476782
  0.7586171557363954  0.2721122910593294  0.4802151396642955
  0.7697178819728379  0.7346480849262065  0.9987335095655254
  0.7484029886397536  0.7325444317927818  0.5111612861657449
  0.9793884474355679  0.7575440113527989  0.7505030685062053
  0.5171941385193932  0.2565806194128299  0.7686414403544077
  0.4928202629548508  0.7378889524276460  0.2317195374464802
  0.5117788923523676  0.7571073074829897  0.7567106403183601
  0.2728761339146004  0.4855218046521301  0.2564930406138970
  0.7382931073674115  0.9852548909349750  0.2629182062706619
  0.7438325415986355  0.5123118159912892  0.2544122698216285
  0.7529919232687377  0.5028370336058430  0.7665166623148707
  0.0100711884517324  0.9837219446251311  0.4985594478376427
  0.9802299597015676  0.4984450055648537  0.0080931195860643
  0.9975232906152769  0.4891708643640200  0.4988333482448013
  0.4949270929057761  0.4961768221566345  0.5178338944213579
  0.2725913329690783  0.2397630950355349  0.0047133273970559
  0.2476229528797305  0.2310987519157237  0.5030022242077479
  0.2382385859116738  0.7592803006473403  0.0049952600427972
  0.7518287926547629  0.2681954152069892  0.0043629466258253
  0.0126249158183640  0.2400118598833245  0.2359366234922859
  0.0024971399267315  0.2495062785155611  0.7409996116441917
  0.9987776689358299  0.7636462519982743  0.2624045833904916
  0.4982184671697851  0.2428330646206263  0.2373884465937266
  0.2570695101500533  0.9922882547889671  0.2508628522518705
  0.2657159829290805  0.0105952194704173  0.7349940210120565
  0.2348328214666537  0.4820060016294789  0.7344720715339790
  0.7367977922370201  0.9910694464958070  0.7336259916538594

  0.00000000E+00  0.00000000E+00  0.00000000E+00
  0.00000000E+00  0.00000000E+00  0.00000000E+00
  0.00000000E+00  0.00000000E+00  0.00000000E+00
  0.00000000E+00  0.00000000E+00  0.00000000E+00
  0.00000000E+00  0.00000000E+00  0.00000000E+00
  0.00000000E+00  0.00000000E+00  0.00000000E+00
  0.00000000E+00  0.00000000E+00  0.00000000E+00
  0.00000000E+00  0.00000000E+00  0.00000000E+00
  0.00000000E+00  0.00000000E+00  0.00000000E+00
  0.00000000E+00  0.00000000E+00  0.00000000E+00
  0.00000000E+00  0.00000000E+00  0.00000000E+00
  0.00000000E+00  0.00000000E+00  0.00000000E+00
  0.00000000E+00  0.00000000E+00  0.00000000E+00
  0.00000000E+00  0.00000000E+00  0.00000000E+00
  0.00000000E+00  0.00000000E+00  0.00000000E+00
  0.00000000E+00  0.00000000E+00  0.00000000E+00
  0.00000000E+00  0.00000000E+00  0.00000000E+00
  0.00000000E+00  0.00000000E+00  0.00000000E+00
  0.00000000E+00  0.00000000E+00  0.00000000E+00
  0.00000000E+00  0.00000000E+00  0.00000000E+00
  0.00000000E+00  0.00000000E+00  0.00000000E+00
  0.00000000E+00  0.00000000E+00  0.00000000E+00
  0.00000000E+00  0.00000000E+00  0.00000000E+00
  0.00000000E+00  0.00000000E+00  0.00000000E+00
  0.00000000E+00  0.00000000E+00  0.00000000E+00
  0.00000000E+00  0.00000000E+00  0.00000000E+00
  0.00000000E+00  0.00000000E+00  0.00000000E+00
  0.00000000E+00  0.00000000E+00  0.00000000E+00
  0.00000000E+00  0.00000000E+00  0.00000000E+00
  0.00000000E+00  0.00000000E+00  0.00000000E+00
  0.00000000E+00  0.00000000E+00  0.00000000E+00
  0.00000000E+00  0.00000000E+00  0.00000000E+00
