../1-ideal/perfect-sqs-32/POSCAR
1.0
7.242525 0.176242 0.454763
-0.219001 7.047407 0.060863
0.410738 0.203041 6.701861
Fe
32
direct
0.032458 0.004828 0.050155 Fe
0.471205 0.051829 0.034856 Fe
0.469564 0.961720 0.564497 Fe
0.468175 0.449380 0.030276 Fe
0.265611 0.809851 0.516285 Fe
0.712559 0.290987 0.509314 Fe
0.727657 0.744568 0.994026 Fe
0.719193 0.780015 0.494067 Fe
0.030313 0.701733 0.783274 Fe
0.521857 0.299084 0.732093 Fe
0.513222 0.708835 0.239554 Fe
0.515379 0.767069 0.768074 Fe
0.250873 0.458864 0.188071 Fe
0.718413 0.995974 0.243673 Fe
0.770429 0.535249 0.230375 Fe
0.782323 0.540956 0.735524 Fe
0.021312 0.004585 0.462253 Fe
0.007068 0.532487 0.058909 Fe
0.996737 0.543803 0.470647 Fe
0.442185 0.434078 0.496713 Fe
0.222504 0.197429 0.021277 Fe
0.228028 0.262877 0.496363 Fe
0.240522 0.692844 0.968347 Fe
0.742853 0.276337 0.009687 Fe
0.030677 0.316412 0.206865 Fe
0.013526 0.268834 0.742369 Fe
0.999745 0.770050 0.226162 Fe
0.435035 0.184161 0.262780 Fe
0.195049 0.027726 0.219846 Fe
0.317787 0.953715 0.748313 Fe
0.267525 0.518685 0.815155 Fe
0.744002 0.989788 0.793444 Fe
