../1-ideal/perfect-sqs-32/POSCAR
   1.00000000000000
     7.0653009962009818    0.0097137940627510   -0.0150449288074250
    -0.0250673438671470    6.9764033119105342   -0.0136392022701050
     0.0565601704847190    0.0505975920453950    6.8871377401585132
   Fe   Fe
    16    16
Direct
  0.9924326698651527  0.0081498405548714  0.9970372921547010
  0.4985466640441629  0.9948470075976914  0.0035336129410410
  0.4883749504274917  0.0012154874831580  0.4967997197850380
  0.4895561406984399  0.4902552912785936  0.9989158748558040
  0.2547405634834661  0.7427881438100030  0.5053008720265453
  0.7516000219308410  0.2519209998325493  0.4980857156973926
  0.7534746465232445  0.7377085314993792  0.0053894538526080
  0.7511694395912087  0.7386484079294462  0.5085171233350607
  0.9953875950441216  0.7504704897095067  0.7499116434259250
  0.4902814243132525  0.2532030109601280  0.7523449971861993
  0.4878785029783117  0.7576631222080792  0.2392756348119960
  0.4862407802060673  0.7587230230086561  0.7406641240098040
  0.2540982509407073  0.5056942436968086  0.2558883321027992
  0.7621787702091183  0.0017241645345720  0.2451897700808701
  0.7431643596584721  0.5047828626061346  0.2500431254929083
  0.7497169110693633  0.5045065912401654  0.7443174290146501
  0.9873338666014391  0.9921971319826639  0.4975716611230538
  0.9880852746980722  0.5046910101958701  0.0054720778879940
  0.0047722052113457  0.5126938519716475  0.4951338864670376
  0.4991255412006268  0.4966687277021435  0.4928719060094835
  0.2521506359283379  0.2541589016491486  0.0059497922019958
  0.2516995429521529  0.2558806137520122  0.4884530302002617
  0.2491066943456204  0.7434083971600458  0.9930488324165054
  0.7560373344975488  0.2417214375465875  0.9999667381745780
  0.0057144597774936  0.2413737152136264  0.2460507178511833
  0.9920777931566249  0.2609036160296085  0.7529175046074315
  0.9974460825720897  0.7467268247378058  0.2445630621917800
  0.4998517810405971  0.2391321528320631  0.2449620792859335
  0.2507622828676688  0.9924771190052510  0.2416383920196168
  0.2440955772753171  0.9990314241930349  0.7562120836577577
  0.2459995662816326  0.4956542694006885  0.7524844971442874
  0.7495376531408127  0.0114571590503232  0.7477313392703593

  0.00000000E+00  0.00000000E+00  0.00000000E+00
  0.00000000E+00  0.00000000E+00  0.00000000E+00
  0.00000000E+00  0.00000000E+00  0.00000000E+00
  0.00000000E+00  0.00000000E+00  0.00000000E+00
  0.00000000E+00  0.00000000E+00  0.00000000E+00
  0.00000000E+00  0.00000000E+00  0.00000000E+00
  0.00000000E+00  0.00000000E+00  0.00000000E+00
  0.00000000E+00  0.00000000E+00  0.00000000E+00
  0.00000000E+00  0.00000000E+00  0.00000000E+00
  0.00000000E+00  0.00000000E+00  0.00000000E+00
  0.00000000E+00  0.00000000E+00  0.00000000E+00
  0.00000000E+00  0.00000000E+00  0.00000000E+00
  0.00000000E+00  0.00000000E+00  0.00000000E+00
  0.00000000E+00  0.00000000E+00  0.00000000E+00
  0.00000000E+00  0.00000000E+00  0.00000000E+00
  0.00000000E+00  0.00000000E+00  0.00000000E+00
  0.00000000E+00  0.00000000E+00  0.00000000E+00
  0.00000000E+00  0.00000000E+00  0.00000000E+00
  0.00000000E+00  0.00000000E+00  0.00000000E+00
  0.00000000E+00  0.00000000E+00  0.00000000E+00
  0.00000000E+00  0.00000000E+00  0.00000000E+00
  0.00000000E+00  0.00000000E+00  0.00000000E+00
  0.00000000E+00  0.00000000E+00  0.00000000E+00
  0.00000000E+00  0.00000000E+00  0.00000000E+00
  0.00000000E+00  0.00000000E+00  0.00000000E+00
  0.00000000E+00  0.00000000E+00  0.00000000E+00
  0.00000000E+00  0.00000000E+00  0.00000000E+00
  0.00000000E+00  0.00000000E+00  0.00000000E+00
  0.00000000E+00  0.00000000E+00  0.00000000E+00
  0.00000000E+00  0.00000000E+00  0.00000000E+00
  0.00000000E+00  0.00000000E+00  0.00000000E+00
  0.00000000E+00  0.00000000E+00  0.00000000E+00
