../1-ideal/perfect-sqs-32/POSCAR
1.0
6.770870 0.060816 0.251147
-0.107222 7.033558 -0.172621
0.310714 -0.390593 6.631122
Fe
32
direct
0.966651 0.030377 0.957231 Fe
0.466161 0.033920 0.014445 Fe
0.459615 0.025194 0.493877 Fe
0.478307 0.451037 0.024864 Fe
0.206573 0.784256 0.479173 Fe
0.731319 0.221586 0.505708 Fe
0.772602 0.787248 0.960637 Fe
0.724392 0.794874 0.462232 Fe
0.015344 0.785216 0.748164 Fe
0.450266 0.222863 0.803851 Fe
0.479389 0.763282 0.250864 Fe
0.444966 0.781038 0.766453 Fe
0.232867 0.538984 0.290075 Fe
0.741953 0.008590 0.273273 Fe
0.704841 0.450982 0.229943 Fe
0.744728 0.554406 0.705478 Fe
0.004342 0.972445 0.521093 Fe
0.015901 0.537236 0.992827 Fe
0.017264 0.538658 0.479417 Fe
0.513868 0.546911 0.502527 Fe
0.204542 0.296245 0.982246 Fe
0.249419 0.293638 0.493769 Fe
0.255107 0.702407 0.946015 Fe
0.762056 0.197142 0.016149 Fe
0.028524 0.197289 0.199368 Fe
0.973136 0.198565 0.739804 Fe
0.975544 0.759512 0.223101 Fe
0.471504 0.246098 0.211984 Fe
0.198126 0.947112 0.276324 Fe
0.243680 0.982809 0.800997 Fe
0.271867 0.449896 0.779735 Fe
0.807269 0.987638 0.771465 Fe
