../1-ideal/perfect-sqs-32/POSCAR
1.0
7.206704 0.154796 -0.010487
0.201583 7.171899 -0.103878
-0.198107 -0.058034 6.835845
Fe
32
direct
0.971627 0.023584 0.997755 Fe
0.526662 0.985219 0.983850 Fe
0.474987 0.016802 0.492374 Fe
0.490159 0.492625 0.004288 Fe
0.251478 0.740625 0.490823 Fe
0.727100 0.257695 0.500289 Fe
0.734293 0.726774 0.004088 Fe
0.736154 0.754047 0.473442 Fe
0.997476 0.740202 0.751906 Fe
0.482348 0.247213 0.752177 Fe
0.480800 0.738321 0.219347 Fe
0.508780 0.754931 0.721549 Fe
0.275307 0.502891 0.268588 Fe
0.741386 0.970030 0.281339 Fe
0.768904 0.511064 0.261388 Fe
0.769947 0.474040 0.743883 Fe
0.984133 0.025271 0.506787 Fe
0.004902 0.500667 0.990393 Fe
0.999921 0.531031 0.488462 Fe
0.515500 0.468520 0.518837 Fe
0.266549 0.230086 0.986891 Fe
0.250148 0.272211 0.493223 Fe
0.228998 0.777036 0.967595 Fe
0.776107 0.255888 0.025043 Fe
0.976346 0.246018 0.254243 Fe
0.969938 0.242492 0.778465 Fe
0.009838 0.771244 0.274917 Fe
0.508915 0.265037 0.277135 Fe
0.279887 0.029988 0.236328 Fe
0.228182 0.980023 0.735999 Fe
0.231513 0.472455 0.753303 Fe
0.726530 0.971260 0.752329 Fe
