../1-ideal/perfect-sqs-32/POSCAR
1.0
6.849722 0.076706 0.260049
-0.213791 7.356077 -0.252257
-0.334159 -0.202257 6.756301
Fe
32
direct
0.005790 0.986167 0.027536 Fe
0.504331 0.972391 0.019982 Fe
0.510685 0.949892 0.534493 Fe
0.470296 0.444136 0.948297 Fe
0.255118 0.798966 0.510537 Fe
0.707430 0.240405 0.507105 Fe
0.770871 0.794239 0.985208 Fe
0.796935 0.762068 0.522775 Fe
0.970520 0.729456 0.752811 Fe
0.551936 0.303707 0.793469 Fe
0.514956 0.784676 0.279430 Fe
0.457216 0.699342 0.727736 Fe
0.227118 0.516285 0.277217 Fe
0.713478 0.997949 0.255916 Fe
0.762577 0.469769 0.203477 Fe
0.714144 0.453672 0.769622 Fe
0.969293 0.013301 0.443192 Fe
0.948136 0.471953 0.988594 Fe
0.016428 0.535776 0.497477 Fe
0.522852 0.516998 0.471258 Fe
0.303172 0.265511 0.040643 Fe
0.217934 0.251852 0.507270 Fe
0.298918 0.740733 0.989362 Fe
0.750366 0.249877 0.019502 Fe
0.946764 0.292651 0.227308 Fe
0.045276 0.225497 0.720171 Fe
0.964584 0.723239 0.203368 Fe
0.461928 0.248580 0.268922 Fe
0.228748 0.945725 0.305534 Fe
0.287597 0.039470 0.757905 Fe
0.285949 0.538108 0.739543 Fe
0.750991 0.035480 0.694901 Fe
