../1-ideal/perfect-sqs-32/POSCAR
1.0
7.151732 -0.067643 0.002508
0.037722 6.896585 -0.060862
0.122304 -0.053771 7.021242
Fe
32
direct
0.978137 0.010383 0.985911 Fe
0.501457 0.017139 0.993070 Fe
0.487821 0.014811 0.500834 Fe
0.514865 0.504422 0.981243 Fe
0.261328 0.759643 0.508971 Fe
0.741576 0.248194 0.488402 Fe
0.764504 0.761377 0.995848 Fe
0.748048 0.765459 0.514090 Fe
0.995485 0.763126 0.731102 Fe
0.484860 0.239436 0.734724 Fe
0.499717 0.737031 0.241288 Fe
0.508320 0.756114 0.732963 Fe
0.265795 0.503797 0.237641 Fe
0.764412 0.983822 0.253264 Fe
0.745421 0.504707 0.251578 Fe
0.759792 0.484974 0.751617 Fe
0.991005 0.984918 0.506365 Fe
0.995404 0.484519 0.006915 Fe
0.013343 0.502245 0.496170 Fe
0.481647 0.495472 0.504714 Fe
0.264032 0.262939 0.017811 Fe
0.256197 0.261356 0.484623 Fe
0.244465 0.748585 0.004642 Fe
0.740417 0.249652 0.990771 Fe
0.008362 0.259456 0.236027 Fe
0.001156 0.235331 0.737623 Fe
0.993141 0.752960 0.266231 Fe
0.499436 0.247210 0.264046 Fe
0.262889 0.999675 0.236909 Fe
0.247139 0.995716 0.764972 Fe
0.258226 0.487414 0.750897 Fe
0.758004 0.011855 0.757302 Fe
