../1-ideal/perfect-sqs-32/POSCAR
1.0
7.163780 -0.047278 0.005540
-0.041735 6.909854 -0.010487
0.084729 -0.011646 6.894335
Fe
32
direct
0.986546 0.008487 0.007221 Fe
0.486448 0.006620 0.011103 Fe
0.497421 0.013052 0.495966 Fe
0.501358 0.494737 0.003203 Fe
0.246120 0.749842 0.499681 Fe
0.759078 0.242778 0.484968 Fe
0.742610 0.743092 0.004949 Fe
0.740509 0.747679 0.512326 Fe
0.008689 0.736585 0.736593 Fe
0.496965 0.258790 0.753691 Fe
0.493716 0.758819 0.256660 Fe
0.501318 0.754370 0.753467 Fe
0.257417 0.508705 0.239345 Fe
0.744749 0.000518 0.256829 Fe
0.760967 0.498661 0.238327 Fe
0.754797 0.491445 0.737322 Fe
0.997255 0.003594 0.491421 Fe
0.988070 0.492136 0.989718 Fe
0.009918 0.497721 0.502919 Fe
0.488202 0.501025 0.509359 Fe
0.253859 0.240187 0.000416 Fe
0.261061 0.241383 0.512323 Fe
0.245885 0.764096 0.985297 Fe
0.761938 0.248614 0.010027 Fe
0.999134 0.256085 0.256563 Fe
0.983559 0.256979 0.762090 Fe
0.997958 0.741045 0.261589 Fe
0.486153 0.249733 0.239169 Fe
0.257884 0.998709 0.249150 Fe
0.245403 0.994962 0.744730 Fe
0.243384 0.512793 0.756508 Fe
0.745444 0.002513 0.760756 Fe
