../1-ideal/perfect-sqs-32/POSCAR
   1.00000000000000
     7.1261022371198157   -0.1417661805308350   -0.0201594942945800
    -0.0128383896724290    7.0469799570211924   -0.0046798445573330
    -0.1696111227700990   -0.3418223766148660    6.6835401774975374
   Fe   Fe
    16    16
Direct
  0.0214908347614227  0.9497061543627581  0.0157674546070510
  0.5232777146118792  0.0421092838202384  0.9814421684612711
  0.4699193172395297  0.9600852388913310  0.5212421819585913
  0.5393954981228006  0.4653885675252312  0.0414178634559974
  0.2795349807874388  0.7996029106958815  0.5116381963178540
  0.7166294064208572  0.2467314575176971  0.4960655352305707
  0.7875050298107311  0.7143206956851387  0.9515255157036009
  0.7306124820356601  0.7383331245041731  0.4536769537528755
  0.0403305416448418  0.7499115048929497  0.7974409395258633
  0.5255739539598139  0.2912064677048249  0.7006091459920185
  0.4509839614451892  0.7282157099125186  0.2406996547865461
  0.4741657200395153  0.8036047996953570  0.7242062513620695
  0.2863694662742091  0.5195116997964035  0.2132114422048517
  0.7706210213152431  0.9696781129931651  0.3010964392752769
  0.8016956207518646  0.5367523033801049  0.2027837860998787
  0.7165744286848437  0.5304810655958150  0.7430467266665204
  0.9678742028928085  0.0074203237829522  0.5163377413108847
  0.0471861390645074  0.4673259871145490  0.0499697800445063
  0.0306102773231132  0.5011719248702704  0.4526864144728435
  0.5257766338880074  0.5206500130375815  0.4585279978797701
  0.2793568543619642  0.2935911277148193  0.0457544200031279
  0.2951681279807516  0.2978698266177560  0.5014363075392509
  0.2576935164816092  0.7073522557418741  0.9768267788318497
  0.7458708051773044  0.2026787985184555  0.0074228718812890
  0.0400691437575347  0.2621834841288404  0.2150631741056870
  0.9568248212968413  0.2730729763593445  0.7398739800430434
  0.0132940828032631  0.7003076886850863  0.2874293710979643
  0.4983179441365664  0.2652720357232639  0.2903946553075158
  0.2431750985907755  0.0201720868235427  0.2562997185494993
  0.2753602515730265  0.9471130091223117  0.7379527256571663
  0.2022771699558135  0.5069465388735139  0.7584697501635702
  0.7224053261254113  0.9607305627628833  0.7741681280120076

  0.00000000E+00  0.00000000E+00  0.00000000E+00
  0.00000000E+00  0.00000000E+00  0.00000000E+00
  0.00000000E+00  0.00000000E+00  0.00000000E+00
  0.00000000E+00  0.00000000E+00  0.00000000E+00
  0.00000000E+00  0.00000000E+00  0.00000000E+00
  0.00000000E+00  0.00000000E+00  0.00000000E+00
  0.00000000E+00  0.00000000E+00  0.00000000E+00
  0.00000000E+00  0.00000000E+00  0.00000000E+00
  0.00000000E+00  0.00000000E+00  0.00000000E+00
  0.00000000E+00  0.00000000E+00  0.00000000E+00
  0.00000000E+00  0.00000000E+00  0.00000000E+00
  0.00000000E+00  0.00000000E+00  0.00000000E+00
  0.00000000E+00  0.00000000E+00  0.00000000E+00
  0.00000000E+00  0.00000000E+00  0.00000000E+00
  0.00000000E+00  0.00000000E+00  0.00000000E+00
  0.00000000E+00  0.00000000E+00  0.00000000E+00
  0.00000000E+00  0.00000000E+00  0.00000000E+00
  0.00000000E+00  0.00000000E+00  0.00000000E+00
  0.00000000E+00  0.00000000E+00  0.00000000E+00
  0.00000000E+00  0.00000000E+00  0.00000000E+00
  0.00000000E+00  0.00000000E+00  0.00000000E+00
  0.00000000E+00  0.00000000E+00  0.00000000E+00
  0.00000000E+00  0.00000000E+00  0.00000000E+00
  0.00000000E+00  0.00000000E+00  0.00000000E+00
  0.00000000E+00  0.00000000E+00  0.00000000E+00
  0.00000000E+00  0.00000000E+00  0.00000000E+00
  0.00000000E+00  0.00000000E+00  0.00000000E+00
  0.00000000E+00  0.00000000E+00  0.00000000E+00
  0.00000000E+00  0.00000000E+00  0.00000000E+00
  0.00000000E+00  0.00000000E+00  0.00000000E+00
  0.00000000E+00  0.00000000E+00  0.00000000E+00
  0.00000000E+00  0.00000000E+00  0.00000000E+00
