../1-ideal/perfect-sqs-32/POSCAR
   1.00000000000000
     6.8519785587913979   -0.2140667128836080    0.2993395693601930
    -0.1371658133465390    7.2600123202621472   -0.1126854924650260
    -0.0062542832609030    0.0282605269300130    6.9272852744430784
   Fe   Fe
    16    16
Direct
  0.0388562220509741  0.0296577831303679  0.0354614729965803
  0.4717583683757454  0.9862788235056712  0.0299662703687034
  0.5278607136727800  0.9758184269648922  0.4749145963355943
  0.5128407624116775  0.5335740744238819  0.9987568402465854
  0.2612458975095677  0.7941708931953784  0.4690799832955079
  0.7233910407398128  0.2630494176947167  0.5019959816200554
  0.7348190763575673  0.7600898206605038  0.0428398777223862
  0.7329638264424219  0.7256902696897782  0.5470262101503565
  0.0363705307642519  0.7527524223250595  0.7660084944213992
  0.5374634585033817  0.2254135759145584  0.7074158648285476
  0.4941615114094944  0.7460148857011220  0.2667114394594421
  0.5111441939900061  0.7096877527081986  0.7054326126279591
  0.2352014910294002  0.4593691813428862  0.2457594476180063
  0.7294064386488444  0.9816189787066776  0.2370067417893651
  0.7414905383750678  0.4950896956143254  0.2845174088134499
  0.7374967383629425  0.5326442796725672  0.7371614786850316
  0.9941134181772355  0.9625898877515127  0.4799726773291653
  0.9847034757289990  0.4743675057092815  0.9685207868482735
  0.0142735060514951  0.5353648130722632  0.4943841296859688
  0.5081235850112833  0.4625846924344827  0.4708140163382168
  0.2737640999976989  0.2602406503103154  0.9710735613282964
  0.2261156563682079  0.2062564827743572  0.5221755343157284
  0.2895063342539288  0.7419119862731733  0.0199203397407786
  0.7372401120207570  0.2836662980777120  0.0382926785422839
  0.9853350974372432  0.2240533438859131  0.2593375932030426
  0.9705850066575294  0.2826234646865657  0.7943950785917124
  0.9679980913457698  0.7175114848123556  0.2219874843549761
  0.5184821316336965  0.2047224932219649  0.2053323918255217
  0.2799910151288074  0.0238035285339961  0.2779809110104097
  0.2302722053020361  0.0024110876065322  0.7745544454626128
  0.2353143061876253  0.4824528078054655  0.7584274879086976
  0.7971843972839281  0.9908456376217956  0.7384591520707957

  0.00000000E+00  0.00000000E+00  0.00000000E+00
  0.00000000E+00  0.00000000E+00  0.00000000E+00
  0.00000000E+00  0.00000000E+00  0.00000000E+00
  0.00000000E+00  0.00000000E+00  0.00000000E+00
  0.00000000E+00  0.00000000E+00  0.00000000E+00
  0.00000000E+00  0.00000000E+00  0.00000000E+00
  0.00000000E+00  0.00000000E+00  0.00000000E+00
  0.00000000E+00  0.00000000E+00  0.00000000E+00
  0.00000000E+00  0.00000000E+00  0.00000000E+00
  0.00000000E+00  0.00000000E+00  0.00000000E+00
  0.00000000E+00  0.00000000E+00  0.00000000E+00
  0.00000000E+00  0.00000000E+00  0.00000000E+00
  0.00000000E+00  0.00000000E+00  0.00000000E+00
  0.00000000E+00  0.00000000E+00  0.00000000E+00
  0.00000000E+00  0.00000000E+00  0.00000000E+00
  0.00000000E+00  0.00000000E+00  0.00000000E+00
  0.00000000E+00  0.00000000E+00  0.00000000E+00
  0.00000000E+00  0.00000000E+00  0.00000000E+00
  0.00000000E+00  0.00000000E+00  0.00000000E+00
  0.00000000E+00  0.00000000E+00  0.00000000E+00
  0.00000000E+00  0.00000000E+00  0.00000000E+00
  0.00000000E+00  0.00000000E+00  0.00000000E+00
  0.00000000E+00  0.00000000E+00  0.00000000E+00
  0.00000000E+00  0.00000000E+00  0.00000000E+00
  0.00000000E+00  0.00000000E+00  0.00000000E+00
  0.00000000E+00  0.00000000E+00  0.00000000E+00
  0.00000000E+00  0.00000000E+00  0.00000000E+00
  0.00000000E+00  0.00000000E+00  0.00000000E+00
  0.00000000E+00  0.00000000E+00  0.00000000E+00
  0.00000000E+00  0.00000000E+00  0.00000000E+00
  0.00000000E+00  0.00000000E+00  0.00000000E+00
  0.00000000E+00  0.00000000E+00  0.00000000E+00
