../1-ideal/perfect-sqs-32/POSCAR
1.0
6.681307 0.454942 -0.398996
-0.163281 6.699890 0.438773
0.081415 -0.306988 6.973724
Fe
32
direct
0.927057 0.020424 0.948509 Fe
0.515727 0.052694 0.936410 Fe
0.557683 0.015363 0.539005 Fe
0.459659 0.482261 0.054398 Fe
0.252086 0.792862 0.526219 Fe
0.753243 0.261067 0.520300 Fe
0.735056 0.709427 0.038974 Fe
0.814345 0.706003 0.532796 Fe
0.004055 0.704052 0.811568 Fe
0.517396 0.212780 0.773201 Fe
0.556505 0.773856 0.311168 Fe
0.430236 0.709548 0.691642 Fe
0.194233 0.517847 0.272899 Fe
0.706118 0.021270 0.229866 Fe
0.706809 0.527572 0.199991 Fe
0.726266 0.482603 0.788552 Fe
0.063225 0.957442 0.442575 Fe
0.933184 0.492888 0.947759 Fe
0.932159 0.509711 0.483242 Fe
0.442035 0.496567 0.517438 Fe
0.313643 0.265529 0.013366 Fe
0.210891 0.272343 0.429599 Fe
0.191116 0.734856 0.014349 Fe
0.742940 0.307088 0.050196 Fe
0.979053 0.191325 0.257786 Fe
0.032835 0.297711 0.783283 Fe
0.054927 0.741523 0.314163 Fe
0.550327 0.295923 0.243158 Fe
0.306203 0.954852 0.195460 Fe
0.302034 0.989772 0.735152 Fe
0.282683 0.454882 0.719299 Fe
0.808903 0.951147 0.710766 Fe
