../1-ideal/perfect-sqs-32/POSCAR
1.0
7.167614 -0.057212 0.100189
-0.066127 6.996006 0.001266
0.088546 -0.005334 6.931769
Fe
32
direct
0.986101 0.986642 0.990602 Fe
0.502822 0.999246 0.994601 Fe
0.486448 0.996109 0.500915 Fe
0.492260 0.496714 0.009650 Fe
0.248810 0.747589 0.508688 Fe
0.761059 0.241260 0.500440 Fe
0.749840 0.739433 0.996837 Fe
0.755978 0.739677 0.508201 Fe
0.001595 0.749408 0.742970 Fe
0.497448 0.247211 0.755248 Fe
0.492843 0.756945 0.240748 Fe
0.493884 0.757956 0.738376 Fe
0.259966 0.491068 0.255868 Fe
0.753573 0.997835 0.263274 Fe
0.755449 0.503949 0.260069 Fe
0.744129 0.496866 0.743169 Fe
0.989432 0.991648 0.503184 Fe
0.997241 0.497857 0.994812 Fe
0.004228 0.510672 0.494278 Fe
0.492987 0.502705 0.498110 Fe
0.250453 0.241097 0.999949 Fe
0.247996 0.247965 0.487738 Fe
0.257365 0.758719 0.998388 Fe
0.746391 0.241132 0.993567 Fe
0.994527 0.241466 0.244441 Fe
0.997996 0.255257 0.761610 Fe
0.009830 0.744791 0.242893 Fe
0.491875 0.241261 0.238758 Fe
0.255006 0.988302 0.260743 Fe
0.240353 0.991971 0.741209 Fe
0.254999 0.490117 0.751448 Fe
0.749960 0.010407 0.743672 Fe
