../1-ideal/perfect-sqs-32/POSCAR
1.0
7.113049 -0.028928 0.023361
-0.028476 6.993166 -0.016406
0.017767 -0.014229 6.916996
Fe
32
direct
0.995632 0.999580 0.000752 Fe
0.497685 0.002157 0.999864 Fe
0.496787 0.001090 0.500001 Fe
0.498300 0.497855 0.998962 Fe
0.251541 0.750242 0.503673 Fe
0.749057 0.251654 0.496982 Fe
0.754004 0.749351 0.999875 Fe
0.752898 0.747037 0.501415 Fe
0.996832 0.748529 0.747118 Fe
0.498857 0.248664 0.751707 Fe
0.497027 0.752347 0.251505 Fe
0.497448 0.752152 0.747654 Fe
0.255021 0.500480 0.249417 Fe
0.750947 0.000751 0.253241 Fe
0.752229 0.497690 0.250760 Fe
0.753365 0.500217 0.748629 Fe
0.997865 0.998809 0.498582 Fe
0.997120 0.500636 0.000666 Fe
0.998034 0.502469 0.498770 Fe
0.494663 0.499572 0.500472 Fe
0.253571 0.248657 0.002921 Fe
0.253645 0.248936 0.500105 Fe
0.250847 0.751393 0.997646 Fe
0.752782 0.250036 0.003818 Fe
0.997329 0.252891 0.247837 Fe
0.995473 0.251066 0.750003 Fe
0.000790 0.749309 0.251568 Fe
0.496589 0.248257 0.246692 Fe
0.252281 0.998944 0.250188 Fe
0.250708 0.996432 0.751706 Fe
0.252438 0.501252 0.752206 Fe
0.755062 0.002422 0.748670 Fe
