../1-ideal/perfect-sqs-32/POSCAR
1.0
7.017009 0.269396 0.128560
-0.076998 7.129084 0.044229
0.219002 0.032827 6.883878
Fe
32
direct
0.996033 0.973050 0.020900 Fe
0.540472 0.015569 0.004641 Fe
0.473174 0.957189 0.465999 Fe
0.534864 0.489045 0.005503 Fe
0.260257 0.740223 0.485159 Fe
0.714022 0.266530 0.510662 Fe
0.721993 0.743961 0.965436 Fe
0.775430 0.788647 0.504235 Fe
0.004335 0.752548 0.781202 Fe
0.487607 0.286698 0.778061 Fe
0.473446 0.732025 0.253661 Fe
0.500317 0.747911 0.747219 Fe
0.214701 0.536588 0.223839 Fe
0.781662 0.974578 0.241179 Fe
0.732416 0.504750 0.267481 Fe
0.761667 0.523191 0.728256 Fe
0.980689 0.006136 0.467369 Fe
0.024913 0.477168 0.002382 Fe
0.001821 0.542170 0.487958 Fe
0.461338 0.474515 0.504329 Fe
0.238087 0.257458 0.979818 Fe
0.280486 0.223713 0.534850 Fe
0.256801 0.737619 0.038671 Fe
0.756233 0.230679 0.006197 Fe
0.015724 0.248582 0.220105 Fe
0.960687 0.283074 0.746808 Fe
0.965348 0.789611 0.228202 Fe
0.481922 0.209562 0.211920 Fe
0.244401 0.972488 0.269970 Fe
0.285834 0.009070 0.762116 Fe
0.267038 0.543058 0.726099 Fe
0.783713 0.977156 0.735838 Fe
