../1-ideal/perfect-sqs-32/POSCAR
1.0
7.201341 -0.167591 0.130978
-0.161404 7.129343 0.090859
-0.016661 -0.034258 7.072069
Fe
32
direct
0.986303 0.981223 0.997258 Fe
0.515497 0.989518 0.988826 Fe
0.517944 0.980726 0.521907 Fe
0.498215 0.495676 0.979993 Fe
0.270918 0.753908 0.522689 Fe
0.769016 0.243957 0.516083 Fe
0.744729 0.750306 0.016982 Fe
0.767400 0.741921 0.499652 Fe
0.011950 0.741762 0.738392 Fe
0.506441 0.265564 0.741831 Fe
0.517087 0.750648 0.269840 Fe
0.484669 0.769834 0.765747 Fe
0.275351 0.494062 0.231389 Fe
0.763634 0.022625 0.258548 Fe
0.754078 0.517056 0.252729 Fe
0.739788 0.520848 0.754643 Fe
0.990346 0.002189 0.483179 Fe
0.015534 0.520227 0.001352 Fe
0.009919 0.502235 0.484893 Fe
0.515139 0.484428 0.511369 Fe
0.237167 0.262762 0.985343 Fe
0.233295 0.255844 0.486872 Fe
0.244685 0.762899 0.981413 Fe
0.761302 0.256200 0.014167 Fe
0.997757 0.273186 0.269602 Fe
0.004341 0.257492 0.731933 Fe
0.003678 0.750498 0.238330 Fe
0.505228 0.247902 0.238064 Fe
0.271331 0.990952 0.245730 Fe
0.252163 0.017261 0.741640 Fe
0.232878 0.488009 0.765907 Fe
0.770241 0.998538 0.728199 Fe
