../1-ideal/perfect-sqs-32/POSCAR
1.0
7.194634 -0.054201 -0.095247
0.005144 6.930236 0.044372
-0.039674 0.066955 6.831920
Fe
32
direct
0.991119 0.001376 0.003637 Fe
0.488291 0.009372 0.007095 Fe
0.493298 0.003431 0.503201 Fe
0.490696 0.491456 0.998702 Fe
0.243817 0.766546 0.500614 Fe
0.759530 0.259932 0.492231 Fe
0.768771 0.757599 0.013959 Fe
0.744115 0.746600 0.496785 Fe
0.999669 0.763733 0.751767 Fe
0.508747 0.247498 0.756670 Fe
0.486106 0.747605 0.252170 Fe
0.498426 0.761238 0.746565 Fe
0.241998 0.512758 0.236073 Fe
0.736446 0.988754 0.264544 Fe
0.742270 0.503414 0.244582 Fe
0.744419 0.492024 0.756286 Fe
0.987033 0.011847 0.505317 Fe
0.007588 0.491570 0.991022 Fe
0.985117 0.518604 0.496425 Fe
0.489248 0.484888 0.495752 Fe
0.251995 0.262607 0.996561 Fe
0.254767 0.250955 0.492180 Fe
0.265938 0.745663 0.997809 Fe
0.747240 0.260412 0.987334 Fe
0.991244 0.248511 0.258707 Fe
0.996909 0.266934 0.734621 Fe
0.007038 0.748249 0.254129 Fe
0.509266 0.261522 0.241566 Fe
0.267742 0.006450 0.234073 Fe
0.238474 0.013491 0.735910 Fe
0.241227 0.492508 0.743157 Fe
0.762085 0.008349 0.749368 Fe
