../1-ideal/perfect-sqs-32/POSCAR
1.0
6.676486 -0.022981 0.337905
0.454378 6.620584 -0.309793
0.156894 -0.446463 6.620149
Fe
32
direct
0.060035 0.935693 0.042512 Fe
0.469641 0.007228 0.067156 Fe
0.518217 0.947043 0.459789 Fe
0.559037 0.534231 0.948414 Fe
0.257608 0.686730 0.548839 Fe
0.809157 0.300022 0.481232 Fe
0.746211 0.785303 0.058007 Fe
0.814452 0.680342 0.494418 Fe
0.042373 0.803581 0.714492 Fe
0.476325 0.198505 0.734764 Fe
0.562810 0.758407 0.220466 Fe
0.550147 0.799733 0.760196 Fe
0.260157 0.525546 0.273791 Fe
0.709216 0.056301 0.259480 Fe
0.709171 0.465137 0.186027 Fe
0.791458 0.498262 0.793603 Fe
0.975490 0.014775 0.430321 Fe
0.971583 0.447555 0.031165 Fe
0.013053 0.466326 0.430973 Fe
0.506882 0.433644 0.544890 Fe
0.192102 0.266109 0.017035 Fe
0.249449 0.299511 0.558580 Fe
0.221097 0.781056 0.998342 Fe
0.702431 0.250578 0.989918 Fe
0.973274 0.225185 0.307016 Fe
0.002826 0.290984 0.734116 Fe
0.978902 0.773542 0.227306 Fe
0.463279 0.217342 0.242697 Fe
0.264055 0.936534 0.292587 Fe
0.211646 0.928440 0.711061 Fe
0.291175 0.550940 0.706648 Fe
0.744614 0.035106 0.800498 Fe
