../1-ideal/perfect-sqs-32/POSCAR
   1.00000000000000
     6.9974829057103607   -0.0931932312507020    0.0589296623193160
    -0.1893551383973720    6.9524453572932527   -0.0973595293974570
    -0.0766044361016490   -0.0707360323548190    7.0262525883782061
   Fe   Fe
    16    16
Direct
  0.0259995037296790  0.9954991058838232  0.9959049586230506
  0.5288204881581393  0.9690335521504068  0.0323549562714049
  0.4793968029494238  0.0212236551287219  0.4784496834673533
  0.5286548591111568  0.5138535131694226  0.9924748757110606
  0.2419157903502551  0.7606928207087194  0.4933967751033848
  0.7812803875985637  0.2605361475601882  0.4951999386781338
  0.7584302687227549  0.7141693698662550  0.0020341661422947
  0.7395102690738042  0.7253193226565102  0.5368318636413107
  0.0191763307936057  0.7684445441450123  0.7148205852458744
  0.4772114971549541  0.2296632495925124  0.7278691365067900
  0.5245197782602631  0.7552091101448539  0.2631126978321490
  0.4859870784341140  0.7772857010479441  0.7493562541198884
  0.2390117390232405  0.5017767688787487  0.2377256959537277
  0.7258781860231309  0.0020042239444535  0.2707508382980706
  0.7467301626604552  0.5256732510272712  0.2745392998451806
  0.7204274417506227  0.4795308235928459  0.7238363145343598
  0.0156767287602264  0.9852039806744841  0.4790097535922015
  0.0094511516176041  0.4857659713757414  0.9690001986999874
  0.0035188520277529  0.5253982892550226  0.5281023301332013
  0.5202574220685534  0.5141279669864574  0.5205984936092563
  0.2190169096833543  0.2758823627476019  0.0234981819216955
  0.2661577141270755  0.2752417812203376  0.4698753863817799
  0.2722136188622173  0.7838047318004513  0.9696105927188370
  0.7493864550771505  0.2305656777863732  0.9937857072017380
  0.0211643943449147  0.2197317040188906  0.2204546510988195
  0.0234485502826232  0.2306181938043395  0.7447401237911464
  0.0158667727335171  0.7364887883038875  0.2802438124732589
  0.5297692645593770  0.2405295571084665  0.2497223437526017
  0.2761139689501277  0.0024903090405246  0.2195458563166710
  0.2178967595639563  0.9996598910335734  0.7277653106845463
  0.2543476802455586  0.5025600081402004  0.7423671927953492
  0.7309261992503906  0.0175085963866692  0.7815763711929335

  0.00000000E+00  0.00000000E+00  0.00000000E+00
  0.00000000E+00  0.00000000E+00  0.00000000E+00
  0.00000000E+00  0.00000000E+00  0.00000000E+00
  0.00000000E+00  0.00000000E+00  0.00000000E+00
  0.00000000E+00  0.00000000E+00  0.00000000E+00
  0.00000000E+00  0.00000000E+00  0.00000000E+00
  0.00000000E+00  0.00000000E+00  0.00000000E+00
  0.00000000E+00  0.00000000E+00  0.00000000E+00
  0.00000000E+00  0.00000000E+00  0.00000000E+00
  0.00000000E+00  0.00000000E+00  0.00000000E+00
  0.00000000E+00  0.00000000E+00  0.00000000E+00
  0.00000000E+00  0.00000000E+00  0.00000000E+00
  0.00000000E+00  0.00000000E+00  0.00000000E+00
  0.00000000E+00  0.00000000E+00  0.00000000E+00
  0.00000000E+00  0.00000000E+00  0.00000000E+00
  0.00000000E+00  0.00000000E+00  0.00000000E+00
  0.00000000E+00  0.00000000E+00  0.00000000E+00
  0.00000000E+00  0.00000000E+00  0.00000000E+00
  0.00000000E+00  0.00000000E+00  0.00000000E+00
  0.00000000E+00  0.00000000E+00  0.00000000E+00
  0.00000000E+00  0.00000000E+00  0.00000000E+00
  0.00000000E+00  0.00000000E+00  0.00000000E+00
  0.00000000E+00  0.00000000E+00  0.00000000E+00
  0.00000000E+00  0.00000000E+00  0.00000000E+00
  0.00000000E+00  0.00000000E+00  0.00000000E+00
  0.00000000E+00  0.00000000E+00  0.00000000E+00
  0.00000000E+00  0.00000000E+00  0.00000000E+00
  0.00000000E+00  0.00000000E+00  0.00000000E+00
  0.00000000E+00  0.00000000E+00  0.00000000E+00
  0.00000000E+00  0.00000000E+00  0.00000000E+00
  0.00000000E+00  0.00000000E+00  0.00000000E+00
  0.00000000E+00  0.00000000E+00  0.00000000E+00
