../1-ideal/perfect-sqs-32/POSCAR
1.0
7.442608 0.400628 -0.094154
-0.414962 6.862416 0.395487
-0.096235 -0.083169 6.711651
Fe
32
direct
0.998854 0.945654 0.009645 Fe
0.455382 0.052551 0.061798 Fe
0.504359 0.957917 0.448461 Fe
0.473198 0.537025 0.996607 Fe
0.261970 0.729352 0.464552 Fe
0.707379 0.206157 0.496709 Fe
0.693174 0.692056 0.993162 Fe
0.756984 0.775780 0.442059 Fe
0.992488 0.719936 0.805584 Fe
0.525650 0.257806 0.778011 Fe
0.444564 0.729204 0.196928 Fe
0.504554 0.722801 0.757422 Fe
0.295880 0.487651 0.266466 Fe
0.734020 0.055950 0.240150 Fe
0.692361 0.526579 0.206325 Fe
0.796537 0.474616 0.715547 Fe
0.006846 0.041850 0.532496 Fe
0.958467 0.511174 0.942828 Fe
0.990364 0.477894 0.532300 Fe
0.438237 0.458299 0.541372 Fe
0.265328 0.210212 0.015312 Fe
0.193203 0.219215 0.438508 Fe
0.203100 0.695743 0.974708 Fe
0.728487 0.228935 0.998041 Fe
0.000125 0.233198 0.276391 Fe
0.998392 0.232728 0.793725 Fe
0.044278 0.691602 0.202454 Fe
0.474765 0.258620 0.291061 Fe
0.256485 0.034158 0.233237 Fe
0.308401 0.992747 0.813826 Fe
0.300409 0.496828 0.704149 Fe
0.765993 0.999838 0.706204 Fe
