../1-ideal/perfect-sqs-32/POSCAR
1.0
7.112557 -0.030946 0.023343
-0.027433 7.000231 -0.014830
0.029101 -0.002977 6.925209
Fe
32
direct
0.994328 0.999086 0.001421 Fe
0.499028 0.004189 0.997917 Fe
0.498518 0.001979 0.500607 Fe
0.499651 0.499203 0.997671 Fe
0.254067 0.752472 0.504648 Fe
0.750907 0.250507 0.496699 Fe
0.753823 0.748238 0.000316 Fe
0.751785 0.748039 0.500422 Fe
0.996727 0.748039 0.746657 Fe
0.498690 0.249278 0.752053 Fe
0.496200 0.750227 0.250551 Fe
0.495880 0.752900 0.749271 Fe
0.253568 0.501038 0.250494 Fe
0.751239 0.002909 0.252586 Fe
0.752667 0.496024 0.251141 Fe
0.750936 0.500967 0.749930 Fe
0.997603 0.000108 0.496898 Fe
0.998012 0.501639 0.000696 Fe
0.999168 0.502977 0.498459 Fe
0.496433 0.499000 0.501655 Fe
0.253308 0.246473 0.003328 Fe
0.255098 0.248175 0.497754 Fe
0.250793 0.752279 0.997141 Fe
0.753829 0.250325 0.004633 Fe
0.998686 0.252630 0.247189 Fe
0.994765 0.250979 0.749361 Fe
0.001276 0.746636 0.252010 Fe
0.496667 0.249946 0.247852 Fe
0.253492 0.000219 0.250011 Fe
0.251117 0.998836 0.749990 Fe
0.253153 0.501149 0.751218 Fe
0.754995 0.003064 0.747980 Fe
