../1-ideal/perfect-sqs-32/POSCAR
   1.00000000000000
     7.1325512450917801   -0.1083755525295700    0.0080380797600380
     0.0572306154268120    7.0243020924660033   -0.2231169889511550
    -0.0031361088104250   -0.0093599584663310    7.1934990374592642
   Fe   Fe
    16    16
Direct
  0.9791848300166635  0.0266442203414883  0.0312890777811887
  0.4918617951072406  0.0064557993144376  0.0314924379324921
  0.4653877980611156  0.0045814551134740  0.5183051897352655
  0.5271476932376586  0.5176629808554125  0.9879802594578280
  0.2805481982590905  0.7530910761221250  0.5387102866982119
  0.7824082573167814  0.2156580415823157  0.5005706559467953
  0.7239864906390991  0.7704184540593388  0.0251850135964347
  0.7790860705375877  0.7401015579516326  0.4766938417655311
  0.9914181413238055  0.7788367460734946  0.7659166548294607
  0.5349289560223909  0.2211995495047745  0.7200294658802804
  0.4770569760330474  0.7242871136475131  0.2402167358607556
  0.4627535030263985  0.7846904553099847  0.7207667196882142
  0.2286676731986574  0.4663791383816900  0.2766347444885113
  0.7375279089845677  0.9923082826376941  0.2443794288422865
  0.7349500036630516  0.4600969862433786  0.2350717749719067
  0.7727033288449690  0.4642094236652596  0.7764150752576029
  0.9748644976331491  0.0325662165940201  0.4991748616190108
  0.9653946826330824  0.5220766678554369  0.9649799967213113
  0.9915890589520586  0.5386507458087380  0.5349103359629623
  0.4693551382323378  0.5018395887774005  0.5185496420510773
  0.2229015173662106  0.2381279368446698  0.0161958491672962
  0.2673670294852855  0.2225637329847601  0.5241725377990392
  0.2409184588138515  0.7797160493649216  0.9691768540399650
  0.7659375446130881  0.2214060527520019  0.0041569638805115
  0.0166552050719346  0.2269612412450499  0.2152147775925144
  0.9630197604856363  0.2685706384503632  0.7633705070255488
  0.0203675334326263  0.7529724146139429  0.2236393350687678
  0.4784291221786106  0.2361989027873932  0.2207009534895832
  0.2186949429040794  0.0258379723048279  0.2363202719692481
  0.2148330457279357  0.0358067043935577  0.7466456415833989
  0.2647818654517309  0.4667949421420090  0.7789929627493066
  0.7295216001470592  0.9684437391498832  0.7120220650694833

  0.00000000E+00  0.00000000E+00  0.00000000E+00
  0.00000000E+00  0.00000000E+00  0.00000000E+00
  0.00000000E+00  0.00000000E+00  0.00000000E+00
  0.00000000E+00  0.00000000E+00  0.00000000E+00
  0.00000000E+00  0.00000000E+00  0.00000000E+00
  0.00000000E+00  0.00000000E+00  0.00000000E+00
  0.00000000E+00  0.00000000E+00  0.00000000E+00
  0.00000000E+00  0.00000000E+00  0.00000000E+00
  0.00000000E+00  0.00000000E+00  0.00000000E+00
  0.00000000E+00  0.00000000E+00  0.00000000E+00
  0.00000000E+00  0.00000000E+00  0.00000000E+00
  0.00000000E+00  0.00000000E+00  0.00000000E+00
  0.00000000E+00  0.00000000E+00  0.00000000E+00
  0.00000000E+00  0.00000000E+00  0.00000000E+00
  0.00000000E+00  0.00000000E+00  0.00000000E+00
  0.00000000E+00  0.00000000E+00  0.00000000E+00
  0.00000000E+00  0.00000000E+00  0.00000000E+00
  0.00000000E+00  0.00000000E+00  0.00000000E+00
  0.00000000E+00  0.00000000E+00  0.00000000E+00
  0.00000000E+00  0.00000000E+00  0.00000000E+00
  0.00000000E+00  0.00000000E+00  0.00000000E+00
  0.00000000E+00  0.00000000E+00  0.00000000E+00
  0.00000000E+00  0.00000000E+00  0.00000000E+00
  0.00000000E+00  0.00000000E+00  0.00000000E+00
  0.00000000E+00  0.00000000E+00  0.00000000E+00
  0.00000000E+00  0.00000000E+00  0.00000000E+00
  0.00000000E+00  0.00000000E+00  0.00000000E+00
  0.00000000E+00  0.00000000E+00  0.00000000E+00
  0.00000000E+00  0.00000000E+00  0.00000000E+00
  0.00000000E+00  0.00000000E+00  0.00000000E+00
  0.00000000E+00  0.00000000E+00  0.00000000E+00
  0.00000000E+00  0.00000000E+00  0.00000000E+00
