../1-ideal/perfect-sqs-32/POSCAR
1.0
7.033189 0.055653 -0.043051
0.008746 6.921357 -0.025428
0.089591 0.057667 6.933872
Fe
32
direct
0.992329 0.013145 0.999000 Fe
0.487042 0.004075 0.996155 Fe
0.507108 0.007239 0.502148 Fe
0.494430 0.493192 0.998329 Fe
0.252681 0.763699 0.489608 Fe
0.763247 0.263881 0.488853 Fe
0.754510 0.757840 0.986389 Fe
0.759881 0.744827 0.505836 Fe
0.995435 0.749932 0.759243 Fe
0.500403 0.256700 0.758132 Fe
0.499498 0.761210 0.240477 Fe
0.496276 0.745758 0.733220 Fe
0.245430 0.510254 0.263962 Fe
0.753540 0.989425 0.251136 Fe
0.762358 0.488778 0.240037 Fe
0.745905 0.514045 0.735075 Fe
0.991080 0.995743 0.511545 Fe
0.007401 0.507921 0.006543 Fe
0.987627 0.507615 0.511487 Fe
0.500770 0.505441 0.493323 Fe
0.253922 0.247681 0.015634 Fe
0.248523 0.256877 0.514007 Fe
0.246756 0.739775 0.004228 Fe
0.758290 0.250696 0.994261 Fe
0.005900 0.255260 0.255182 Fe
0.005757 0.243095 0.746240 Fe
0.000762 0.736618 0.261488 Fe
0.486552 0.251836 0.242028 Fe
0.263761 0.013089 0.237301 Fe
0.249231 0.009757 0.752750 Fe
0.238463 0.513119 0.759180 Fe
0.752639 0.014660 0.753259 Fe
