../1-ideal/perfect-sqs-32/POSCAR
1.0
7.074052 -0.034594 0.278053
0.129260 6.823707 -0.244394
0.269574 -0.132274 7.049763
Fe
32
direct
0.969374 0.017801 0.004484 Fe
0.480765 0.029891 0.968212 Fe
0.462288 0.962155 0.491297 Fe
0.536208 0.475794 0.969944 Fe
0.218979 0.718026 0.520666 Fe
0.770125 0.261486 0.476086 Fe
0.742831 0.716868 0.999622 Fe
0.786521 0.730753 0.495288 Fe
0.993209 0.778403 0.733447 Fe
0.498910 0.236430 0.756209 Fe
0.466383 0.719823 0.276336 Fe
0.530744 0.720021 0.733742 Fe
0.257508 0.503356 0.282475 Fe
0.755064 0.006197 0.289152 Fe
0.773190 0.458938 0.242089 Fe
0.716731 0.535686 0.764685 Fe
0.976718 0.037200 0.517745 Fe
0.032635 0.530904 0.988751 Fe
0.022324 0.529896 0.486872 Fe
0.517608 0.456823 0.533735 Fe
0.282454 0.286561 0.011154 Fe
0.263238 0.236871 0.538249 Fe
0.275570 0.778112 0.994777 Fe
0.778190 0.231874 0.966873 Fe
0.014202 0.266900 0.285872 Fe
0.960608 0.276894 0.739316 Fe
0.993482 0.722242 0.218270 Fe
0.498391 0.213560 0.267966 Fe
0.288979 0.011070 0.285855 Fe
0.215931 0.975185 0.770123 Fe
0.281727 0.503253 0.722391 Fe
0.752411 0.994060 0.750285 Fe
