../1-ideal/perfect-sqs-32/POSCAR
   1.00000000000000
     7.1529790698467393   -0.0612176805719470    0.0683257000604090
     0.0078832333820390    6.9627227410606176   -0.0169193148773930
     0.0663415597901500   -0.0678273236901840    6.8756595899733313
   Fe   Fe
    16    16
Direct
  0.9994856424490379  0.0014516820295754  0.9940622879350940
  0.4997884636997796  0.9998275525058844  0.0002095654427592
  0.4913056849649706  0.9994757021245348  0.4947239660244165
  0.4959777119404123  0.5039986304756710  0.9952200519198726
  0.2467199379967013  0.7472421908498177  0.4967640315211668
  0.7567093025501634  0.2432735280557239  0.5055626314423805
  0.7504816415750497  0.7461856687065733  0.0039532748080049
  0.7509507867822904  0.7446970882910762  0.5018301585999581
  0.9965790926173383  0.7530102037558564  0.7422747557021054
  0.4986297307678242  0.2417499646044874  0.7520769718292399
  0.4928938309382360  0.7557320519999635  0.2547488950730283
  0.4938641445358698  0.7599983168353930  0.7426119670129196
  0.2510016850668109  0.5016185195431646  0.2420182428118736
  0.7479932316169311  0.0001037866033471  0.2481060100586703
  0.7553499563617549  0.5031499266416830  0.2470542863810294
  0.7458224713795047  0.5026914181597064  0.7518830896440747
  0.9921043844380577  0.0034105073282475  0.4894732450101387
  0.9955850665335646  0.5072007158811473  0.9996062122058760
  0.0048467489438906  0.5088306748982276  0.4987699422889804
  0.4957971646595354  0.4997940100758029  0.5084548425716946
  0.2493881280268369  0.2487828496551856  0.0005403472912988
  0.2561219801836998  0.2451901620459864  0.5014393009624456
  0.2522628674889447  0.7592077018542653  0.9914776175390756
  0.7467297486688977  0.2454655068111933  0.0119595512284434
  0.0039819323343835  0.2585901363134440  0.2401357825113735
  0.9978000029860823  0.2505022122740641  0.7516261101042261
  0.9968581257061047  0.7542075968517352  0.2565019956649834
  0.5050894301847393  0.2411186817611437  0.2517870202621282
  0.2464365065547369  0.9980144477205073  0.2529609374129507
  0.2446724878513535  0.0004608547045848  0.7539831288412913
  0.2458072943116179  0.4989224692684999  0.7503232210430468
  0.7496981446999200  0.0058698348327155  0.7506173511695451

  0.00000000E+00  0.00000000E+00  0.00000000E+00
  0.00000000E+00  0.00000000E+00  0.00000000E+00
  0.00000000E+00  0.00000000E+00  0.00000000E+00
  0.00000000E+00  0.00000000E+00  0.00000000E+00
  0.00000000E+00  0.00000000E+00  0.00000000E+00
  0.00000000E+00  0.00000000E+00  0.00000000E+00
  0.00000000E+00  0.00000000E+00  0.00000000E+00
  0.00000000E+00  0.00000000E+00  0.00000000E+00
  0.00000000E+00  0.00000000E+00  0.00000000E+00
  0.00000000E+00  0.00000000E+00  0.00000000E+00
  0.00000000E+00  0.00000000E+00  0.00000000E+00
  0.00000000E+00  0.00000000E+00  0.00000000E+00
  0.00000000E+00  0.00000000E+00  0.00000000E+00
  0.00000000E+00  0.00000000E+00  0.00000000E+00
  0.00000000E+00  0.00000000E+00  0.00000000E+00
  0.00000000E+00  0.00000000E+00  0.00000000E+00
  0.00000000E+00  0.00000000E+00  0.00000000E+00
  0.00000000E+00  0.00000000E+00  0.00000000E+00
  0.00000000E+00  0.00000000E+00  0.00000000E+00
  0.00000000E+00  0.00000000E+00  0.00000000E+00
  0.00000000E+00  0.00000000E+00  0.00000000E+00
  0.00000000E+00  0.00000000E+00  0.00000000E+00
  0.00000000E+00  0.00000000E+00  0.00000000E+00
  0.00000000E+00  0.00000000E+00  0.00000000E+00
  0.00000000E+00  0.00000000E+00  0.00000000E+00
  0.00000000E+00  0.00000000E+00  0.00000000E+00
  0.00000000E+00  0.00000000E+00  0.00000000E+00
  0.00000000E+00  0.00000000E+00  0.00000000E+00
  0.00000000E+00  0.00000000E+00  0.00000000E+00
  0.00000000E+00  0.00000000E+00  0.00000000E+00
  0.00000000E+00  0.00000000E+00  0.00000000E+00
  0.00000000E+00  0.00000000E+00  0.00000000E+00
