../1-ideal/perfect-sqs-32/POSCAR
1.0
7.062191 0.035542 0.015177
-0.078364 7.050141 0.015556
0.008146 -0.060472 6.947994
Fe
32
direct
0.008099 0.987520 0.000353 Fe
0.512775 0.989371 0.995556 Fe
0.482768 0.005834 0.517303 Fe
0.481426 0.511024 0.994684 Fe
0.269082 0.736672 0.490419 Fe
0.738384 0.258558 0.482761 Fe
0.753055 0.737172 0.998707 Fe
0.758193 0.737138 0.502916 Fe
0.004272 0.747767 0.757083 Fe
0.505403 0.249560 0.757080 Fe
0.492415 0.740916 0.238574 Fe
0.480153 0.766353 0.746505 Fe
0.243813 0.495783 0.261039 Fe
0.744912 0.990563 0.269977 Fe
0.759511 0.489952 0.239938 Fe
0.744466 0.507008 0.732768 Fe
0.010094 0.999842 0.513611 Fe
0.000866 0.516808 0.008028 Fe
0.998725 0.501272 0.494630 Fe
0.489305 0.499073 0.499772 Fe
0.242019 0.248294 0.004257 Fe
0.247847 0.259214 0.498068 Fe
0.249321 0.764369 0.006085 Fe
0.743671 0.244227 0.010514 Fe
0.004099 0.248021 0.251092 Fe
0.007575 0.248181 0.748247 Fe
0.997329 0.749202 0.262734 Fe
0.513338 0.258800 0.236452 Fe
0.256546 0.013648 0.248500 Fe
0.264680 0.013921 0.748238 Fe
0.264165 0.486733 0.756604 Fe
0.743561 0.000656 0.734367 Fe
