../1-ideal/perfect-sqs-32/POSCAR
1.0
7.156400 0.014958 0.124892
-0.204803 7.270076 -0.091411
0.130113 0.218650 7.096187
Fe
32
direct
0.997831 0.000365 0.037554 Fe
0.505830 0.973333 0.030481 Fe
0.509116 0.972534 0.513356 Fe
0.482793 0.522977 0.023161 Fe
0.223987 0.758241 0.513488 Fe
0.735467 0.248028 0.514836 Fe
0.729719 0.767985 0.032256 Fe
0.718143 0.742624 0.497162 Fe
0.960058 0.761228 0.762858 Fe
0.486816 0.214444 0.786574 Fe
0.520505 0.727040 0.254603 Fe
0.461937 0.775752 0.748953 Fe
0.246713 0.476473 0.266604 Fe
0.724992 0.988952 0.266624 Fe
0.727373 0.481547 0.217042 Fe
0.789181 0.530589 0.712569 Fe
0.982651 0.004402 0.493813 Fe
0.981327 0.506775 0.014506 Fe
0.978887 0.530743 0.494157 Fe
0.518883 0.535316 0.462318 Fe
0.235763 0.279801 0.025988 Fe
0.223802 0.240009 0.499247 Fe
0.267514 0.731917 0.995494 Fe
0.769511 0.268912 0.985614 Fe
0.021899 0.213263 0.263286 Fe
0.995594 0.243782 0.749009 Fe
0.976475 0.777367 0.219795 Fe
0.481517 0.216336 0.207617 Fe
0.245400 0.986269 0.251805 Fe
0.261524 0.023439 0.788296 Fe
0.258138 0.469394 0.790012 Fe
0.733455 0.997339 0.743619 Fe
