../1-ideal/perfect-sqs-32/POSCAR
   1.00000000000000
     6.9113782606470124   -0.0714983753044040    0.2848001876099130
    -0.1790974847192950    7.0848067588953061   -0.0634944298321540
     0.2090833370299900    0.0341782635261140    6.8830221795543629
   Fe   Fe
    16    16
Direct
  0.0325705989208274  0.9985009537125435  0.0097342620138221
  0.5082686404762740  0.0280377319941749  0.9677219197692182
  0.5344810976443526  0.0338662259410967  0.4631058275661317
  0.5277440718026156  0.4749645691534852  0.0168947076981141
  0.2657832076486244  0.7875462509792186  0.5158646754092828
  0.7773872545396188  0.2285634215057755  0.4577658397993645
  0.7407161006379397  0.7371401072903438  0.0314816163429654
  0.7492669041585032  0.7100914585230385  0.5104845497685844
  0.0290183187303086  0.7407182947806916  0.7396737060907554
  0.5070716707223397  0.2142491152233887  0.7553126467281857
  0.4693886638716975  0.7596692271821652  0.2614115960729677
  0.5089553876054822  0.7508265023276408  0.7237421270191646
  0.2285454515462675  0.5372020906500410  0.2346433933574232
  0.7692095859945098  0.9671097537368709  0.2694321217633373
  0.7555181982355279  0.4902558617148145  0.2738095174257396
  0.7372782747811115  0.4708679059466121  0.7489809943098464
  0.9999679612865435  0.9942958342568602  0.5228093478917160
  0.0294539381225292  0.5181310551217635  0.0147178008764968
  0.0348245976951702  0.4636875661278310  0.5028277408498809
  0.4614560583053091  0.5345168171138539  0.5053024027065121
  0.2327734655938940  0.2826334382253322  0.9966447794619242
  0.2365214857137943  0.2882412930115379  0.5345342651969673
  0.2471957501718904  0.7733595609763668  0.0231912986924812
  0.7822498577688464  0.2625163781182778  0.9910443699535278
  0.9636709375806660  0.2472446188468425  0.2588434130699966
  0.9892706263963476  0.2661565407556736  0.7495571652577624
  0.0332418580813325  0.7157027521772221  0.2468799252597762
  0.5171259733249371  0.2455746947824693  0.2376289015154711
  0.2427373142561464  0.9972024623917619  0.2398570279691086
  0.2210981413708168  0.9698975525693854  0.7356966139997212
  0.2820927802530946  0.5129581035732329  0.7179535031973074
  0.7324752725441002  0.9764165100057980  0.7145498531698635

  0.00000000E+00  0.00000000E+00  0.00000000E+00
  0.00000000E+00  0.00000000E+00  0.00000000E+00
  0.00000000E+00  0.00000000E+00  0.00000000E+00
  0.00000000E+00  0.00000000E+00  0.00000000E+00
  0.00000000E+00  0.00000000E+00  0.00000000E+00
  0.00000000E+00  0.00000000E+00  0.00000000E+00
  0.00000000E+00  0.00000000E+00  0.00000000E+00
  0.00000000E+00  0.00000000E+00  0.00000000E+00
  0.00000000E+00  0.00000000E+00  0.00000000E+00
  0.00000000E+00  0.00000000E+00  0.00000000E+00
  0.00000000E+00  0.00000000E+00  0.00000000E+00
  0.00000000E+00  0.00000000E+00  0.00000000E+00
  0.00000000E+00  0.00000000E+00  0.00000000E+00
  0.00000000E+00  0.00000000E+00  0.00000000E+00
  0.00000000E+00  0.00000000E+00  0.00000000E+00
  0.00000000E+00  0.00000000E+00  0.00000000E+00
  0.00000000E+00  0.00000000E+00  0.00000000E+00
  0.00000000E+00  0.00000000E+00  0.00000000E+00
  0.00000000E+00  0.00000000E+00  0.00000000E+00
  0.00000000E+00  0.00000000E+00  0.00000000E+00
  0.00000000E+00  0.00000000E+00  0.00000000E+00
  0.00000000E+00  0.00000000E+00  0.00000000E+00
  0.00000000E+00  0.00000000E+00  0.00000000E+00
  0.00000000E+00  0.00000000E+00  0.00000000E+00
  0.00000000E+00  0.00000000E+00  0.00000000E+00
  0.00000000E+00  0.00000000E+00  0.00000000E+00
  0.00000000E+00  0.00000000E+00  0.00000000E+00
  0.00000000E+00  0.00000000E+00  0.00000000E+00
  0.00000000E+00  0.00000000E+00  0.00000000E+00
  0.00000000E+00  0.00000000E+00  0.00000000E+00
  0.00000000E+00  0.00000000E+00  0.00000000E+00
  0.00000000E+00  0.00000000E+00  0.00000000E+00
