../1-ideal/perfect-sqs-32/POSCAR
   1.00000000000000
     6.8317931345144460    0.3805336579559300   -0.1776672557762560
    -0.0644370484313640    7.2440098036297487    0.0547373214114860
    -0.3691761190657490   -0.0624808967779220    6.4848556230980892
   Fe   Fe
    16    16
Direct
  0.9750541504089298  0.0614746518577931  0.9576159509352493
  0.4463790521167184  0.9418890772730890  0.9373236886979797
  0.5162208258750951  0.0315023479343992  0.4798398357353406
  0.5226514202936485  0.5194332870898180  0.0015922483342692
  0.3026947161569851  0.7605659760350676  0.5312270114792810
  0.7297035388393667  0.1892985704776748  0.4444275688641639
  0.7067080722737060  0.8088417861058588  0.9769767819168891
  0.7639130397807392  0.7603254941911146  0.4849511892523353
  0.0043436496056088  0.7256019469265311  0.7364618117208508
  0.5512364160891465  0.3126489474518621  0.7093355823851510
  0.5306824433937862  0.8082142341746987  0.2248119302304303
  0.4906469785930554  0.7850940723227637  0.6978169693585983
  0.2776218327055489  0.5647405074376124  0.2997407601452906
  0.7890875629107796  0.0413022428154548  0.2220400405637264
  0.7143960168543799  0.4705469352624050  0.2063727260253572
  0.8121927633364550  0.4972722253328570  0.7431308061639328
  0.9557242865232638  0.9361959768944317  0.5280921916121954
  0.9455474149310419  0.4651484100883962  0.0169793920414776
  0.0567254789008658  0.4776977495531796  0.5039319101867434
  0.4308370229101470  0.5131866716998701  0.5513441569889039
  0.3056498722111911  0.2316146384754134  0.9556468594669667
  0.2147730676056767  0.2786388426989603  0.4466376166309090
  0.2349027799130212  0.7567268198769384  0.9611618416811467
  0.7430215917660732  0.2997403060731614  0.9710749165733077
  0.9342281946601716  0.2968462040076716  0.2809662807561253
  0.0385761758606336  0.2169313121626502  0.7032407371927150
  0.0092082417166068  0.6887967662686805  0.2478120007051317
  0.4786519272212928  0.2910697381851861  0.2978927082939720
  0.2496717190218121  0.9830954386378465  0.2944191094753208
  0.2322582331792873  0.9788619975236017  0.7726139581021982
  0.2279890988258373  0.5652782471865834  0.7944435746597591
  0.8034546006503831  0.0324346921304794  0.7346499162979114

  0.00000000E+00  0.00000000E+00  0.00000000E+00
  0.00000000E+00  0.00000000E+00  0.00000000E+00
  0.00000000E+00  0.00000000E+00  0.00000000E+00
  0.00000000E+00  0.00000000E+00  0.00000000E+00
  0.00000000E+00  0.00000000E+00  0.00000000E+00
  0.00000000E+00  0.00000000E+00  0.00000000E+00
  0.00000000E+00  0.00000000E+00  0.00000000E+00
  0.00000000E+00  0.00000000E+00  0.00000000E+00
  0.00000000E+00  0.00000000E+00  0.00000000E+00
  0.00000000E+00  0.00000000E+00  0.00000000E+00
  0.00000000E+00  0.00000000E+00  0.00000000E+00
  0.00000000E+00  0.00000000E+00  0.00000000E+00
  0.00000000E+00  0.00000000E+00  0.00000000E+00
  0.00000000E+00  0.00000000E+00  0.00000000E+00
  0.00000000E+00  0.00000000E+00  0.00000000E+00
  0.00000000E+00  0.00000000E+00  0.00000000E+00
  0.00000000E+00  0.00000000E+00  0.00000000E+00
  0.00000000E+00  0.00000000E+00  0.00000000E+00
  0.00000000E+00  0.00000000E+00  0.00000000E+00
  0.00000000E+00  0.00000000E+00  0.00000000E+00
  0.00000000E+00  0.00000000E+00  0.00000000E+00
  0.00000000E+00  0.00000000E+00  0.00000000E+00
  0.00000000E+00  0.00000000E+00  0.00000000E+00
  0.00000000E+00  0.00000000E+00  0.00000000E+00
  0.00000000E+00  0.00000000E+00  0.00000000E+00
  0.00000000E+00  0.00000000E+00  0.00000000E+00
  0.00000000E+00  0.00000000E+00  0.00000000E+00
  0.00000000E+00  0.00000000E+00  0.00000000E+00
  0.00000000E+00  0.00000000E+00  0.00000000E+00
  0.00000000E+00  0.00000000E+00  0.00000000E+00
  0.00000000E+00  0.00000000E+00  0.00000000E+00
  0.00000000E+00  0.00000000E+00  0.00000000E+00
