../1-ideal/perfect-sqs-32/POSCAR
   1.00000000000000
     6.9239941702669574   -0.0243508534265390    0.2891065923410220
    -0.2062170963042980    6.7698907714701138   -0.0782834413144720
    -0.2400225283235520   -0.0085037860311410    6.8528869540906276
   Fe   Fe
    16    16
Direct
  0.9678515993372017  0.0458970414969713  0.9873058478177512
  0.5059592544859015  0.9906029991883543  0.0366232844603616
  0.4574665520349441  0.0477323991107852  0.4858284353797231
  0.4741685361004571  0.5132230533076267  0.0288630833963879
  0.2574737910558795  0.7873176035404157  0.4579201601140497
  0.7756307099118089  0.2789496762313561  0.5183026579418453
  0.7221665065197342  0.7020301054303175  0.0213876812209080
  0.7806148878820949  0.7330490268599377  0.5075707339215825
  0.9564985873756626  0.7081996789867020  0.7664897335749146
  0.5310653004955341  0.2930942453535792  0.7254272159902371
  0.5314157897857967  0.7068142634856756  0.2658001288068021
  0.5375727710768743  0.7201654961906030  0.7080628071432571
  0.2744569225429032  0.5449269790604561  0.2599331347751175
  0.7112522970053732  0.9952965468745134  0.2056109098370555
  0.7338773231734237  0.5230544917546780  0.2779541383974902
  0.7378787813742989  0.5079294887088039  0.7520325243859887
  0.0381996893945598  0.0010921341858037  0.4810361233304690
  0.9840041292403754  0.5437857502050889  0.9874700763116593
  0.9524723584402182  0.4595959362455204  0.4996490967341529
  0.4808173077358617  0.4986880270810019  0.5467704017759232
  0.2348097144194412  0.2275512309364416  0.0206077560730691
  0.2933399996549824  0.2790498861027046  0.4541267035383498
  0.2894957309936856  0.7159085870160524  0.9820098507145332
  0.7327229288079238  0.2735141143802835  0.0245006473567670
  0.9963075511593260  0.2831653277624966  0.2710421546508499
  0.0119140394034574  0.2978231486894956  0.7962339300251529
  0.9833227592344826  0.7882063821365861  0.2989669357047759
  0.4876817972032228  0.2148566004397168  0.2049697282072813
  0.2310871577730751  0.9619844590940403  0.2220239523393275
  0.2591002438697529  0.0006061050448309  0.7386696560761692
  0.2677748769204200  0.5254745112662675  0.7228533048176047
  0.7699257465629472  0.0475893129799729  0.7952986567828333

  0.00000000E+00  0.00000000E+00  0.00000000E+00
  0.00000000E+00  0.00000000E+00  0.00000000E+00
  0.00000000E+00  0.00000000E+00  0.00000000E+00
  0.00000000E+00  0.00000000E+00  0.00000000E+00
  0.00000000E+00  0.00000000E+00  0.00000000E+00
  0.00000000E+00  0.00000000E+00  0.00000000E+00
  0.00000000E+00  0.00000000E+00  0.00000000E+00
  0.00000000E+00  0.00000000E+00  0.00000000E+00
  0.00000000E+00  0.00000000E+00  0.00000000E+00
  0.00000000E+00  0.00000000E+00  0.00000000E+00
  0.00000000E+00  0.00000000E+00  0.00000000E+00
  0.00000000E+00  0.00000000E+00  0.00000000E+00
  0.00000000E+00  0.00000000E+00  0.00000000E+00
  0.00000000E+00  0.00000000E+00  0.00000000E+00
  0.00000000E+00  0.00000000E+00  0.00000000E+00
  0.00000000E+00  0.00000000E+00  0.00000000E+00
  0.00000000E+00  0.00000000E+00  0.00000000E+00
  0.00000000E+00  0.00000000E+00  0.00000000E+00
  0.00000000E+00  0.00000000E+00  0.00000000E+00
  0.00000000E+00  0.00000000E+00  0.00000000E+00
  0.00000000E+00  0.00000000E+00  0.00000000E+00
  0.00000000E+00  0.00000000E+00  0.00000000E+00
  0.00000000E+00  0.00000000E+00  0.00000000E+00
  0.00000000E+00  0.00000000E+00  0.00000000E+00
  0.00000000E+00  0.00000000E+00  0.00000000E+00
  0.00000000E+00  0.00000000E+00  0.00000000E+00
  0.00000000E+00  0.00000000E+00  0.00000000E+00
  0.00000000E+00  0.00000000E+00  0.00000000E+00
  0.00000000E+00  0.00000000E+00  0.00000000E+00
  0.00000000E+00  0.00000000E+00  0.00000000E+00
  0.00000000E+00  0.00000000E+00  0.00000000E+00
  0.00000000E+00  0.00000000E+00  0.00000000E+00
