../1-ideal/perfect-sqs-32/POSCAR
1.0
7.107179 -0.011067 0.028345
-0.032691 7.008404 -0.014288
0.029781 -0.005848 6.933172
Fe
32
direct
0.994166 0.998772 0.001645 Fe
0.497843 0.001607 0.999594 Fe
0.497089 0.001307 0.502462 Fe
0.497076 0.500598 0.998621 Fe
0.251200 0.749137 0.504250 Fe
0.748594 0.249268 0.498779 Fe
0.752426 0.746523 0.998669 Fe
0.750960 0.746343 0.499956 Fe
0.995544 0.747879 0.746537 Fe
0.501882 0.247088 0.750020 Fe
0.496448 0.752843 0.248679 Fe
0.497630 0.754167 0.747594 Fe
0.252584 0.499706 0.247113 Fe
0.754106 0.003490 0.251810 Fe
0.751248 0.496653 0.248815 Fe
0.750128 0.497092 0.750458 Fe
0.999261 0.000302 0.499238 Fe
0.996882 0.498691 0.001192 Fe
0.000085 0.503588 0.501204 Fe
0.492858 0.500600 0.499327 Fe
0.254913 0.249988 0.999933 Fe
0.253671 0.249675 0.501756 Fe
0.252320 0.750833 0.998103 Fe
0.751559 0.249130 0.001723 Fe
0.995171 0.250817 0.248484 Fe
0.996333 0.252365 0.749774 Fe
0.001127 0.748707 0.250087 Fe
0.497519 0.249471 0.248705 Fe
0.250648 0.999659 0.249693 Fe
0.253381 0.996737 0.751046 Fe
0.251550 0.501574 0.752055 Fe
0.754173 0.000793 0.748041 Fe
