../1-ideal/perfect-sqs-32/POSCAR
   1.00000000000000
     7.2709385772951141    0.1634757786424030   -0.1825971105658080
     0.1214004188954070    7.2364172616248457   -0.4235277876351060
     0.1866377510838030    0.4152506880008770    6.8847807567302279
   Fe   Fe
    16    16
Direct
  0.9548031676910895  0.0368876733413686  0.9443483112147391
  0.5416316910408838  0.9729659686240595  0.0503780967599781
  0.4427204933006124  0.9382051037469594  0.4392257520254859
  0.5252740690158717  0.4304374620622440  0.0639966489018278
  0.2891412891920382  0.7976753433470094  0.4492376928085662
  0.7431944806541679  0.2243664549185524  0.4896293788240698
  0.8212383926325444  0.7310509385645432  0.9535732486396782
  0.7825925652448120  0.7481744348126682  0.5500892767291816
  0.9590203799079333  0.7787555242040796  0.7182156608955168
  0.4694636419093854  0.2953850111104046  0.8118633021213171
  0.5473110823330245  0.7409949946877319  0.1973363809176405
  0.5332264434259173  0.8143316147985615  0.7164649005871908
  0.2176720048332328  0.5192372585990483  0.3184039415871140
  0.7691267448055399  0.9699700251951811  0.2491018271077223
  0.8195018778014216  0.5615447104359248  0.2049545950222509
  0.6921668498564841  0.4582724759215111  0.7514303382002865
  0.9397503792649289  0.9953412526207757  0.4526585738879376
  0.0449496829173981  0.5237446588404566  0.9610417233368906
  0.0054566618896672  0.4367774727951215  0.4400711057829056
  0.5628140359906908  0.5674333997520691  0.4362613279213789
  0.3013505494874451  0.2133068154965869  0.0449874968543753
  0.2280808892911281  0.2771352387640675  0.5675327417724603
  0.2538029572374825  0.7455672589564131  0.9547335433604189
  0.8203138410413473  0.2488374373608480  0.0327609556730053
  0.9807551500155185  0.2458608865796705  0.2075965991802562
  0.9334659072328648  0.2694668381114482  0.7915125613198342
  0.9930975424172104  0.6788650863403021  0.1915766564792065
  0.4298366047460220  0.2911623337369065  0.2625277989948387
  0.2524135510392185  0.9896425901110675  0.2048799969447330
  0.2888909260858270  0.0574724641115765  0.7908479302851177
  0.2789480200347185  0.4445492345967992  0.8051959030653251
  0.7430470458951675  0.9398248359589374  0.7062146440540786

  0.00000000E+00  0.00000000E+00  0.00000000E+00
  0.00000000E+00  0.00000000E+00  0.00000000E+00
  0.00000000E+00  0.00000000E+00  0.00000000E+00
  0.00000000E+00  0.00000000E+00  0.00000000E+00
  0.00000000E+00  0.00000000E+00  0.00000000E+00
  0.00000000E+00  0.00000000E+00  0.00000000E+00
  0.00000000E+00  0.00000000E+00  0.00000000E+00
  0.00000000E+00  0.00000000E+00  0.00000000E+00
  0.00000000E+00  0.00000000E+00  0.00000000E+00
  0.00000000E+00  0.00000000E+00  0.00000000E+00
  0.00000000E+00  0.00000000E+00  0.00000000E+00
  0.00000000E+00  0.00000000E+00  0.00000000E+00
  0.00000000E+00  0.00000000E+00  0.00000000E+00
  0.00000000E+00  0.00000000E+00  0.00000000E+00
  0.00000000E+00  0.00000000E+00  0.00000000E+00
  0.00000000E+00  0.00000000E+00  0.00000000E+00
  0.00000000E+00  0.00000000E+00  0.00000000E+00
  0.00000000E+00  0.00000000E+00  0.00000000E+00
  0.00000000E+00  0.00000000E+00  0.00000000E+00
  0.00000000E+00  0.00000000E+00  0.00000000E+00
  0.00000000E+00  0.00000000E+00  0.00000000E+00
  0.00000000E+00  0.00000000E+00  0.00000000E+00
  0.00000000E+00  0.00000000E+00  0.00000000E+00
  0.00000000E+00  0.00000000E+00  0.00000000E+00
  0.00000000E+00  0.00000000E+00  0.00000000E+00
  0.00000000E+00  0.00000000E+00  0.00000000E+00
  0.00000000E+00  0.00000000E+00  0.00000000E+00
  0.00000000E+00  0.00000000E+00  0.00000000E+00
  0.00000000E+00  0.00000000E+00  0.00000000E+00
  0.00000000E+00  0.00000000E+00  0.00000000E+00
  0.00000000E+00  0.00000000E+00  0.00000000E+00
  0.00000000E+00  0.00000000E+00  0.00000000E+00
