../1-ideal/perfect-sqs-32/POSCAR
1.0
7.146975 0.035876 -0.017455
-0.028511 6.945885 -0.019935
-0.021678 -0.073273 6.978654
Fe
32
direct
0.991499 0.999200 0.000459 Fe
0.498658 0.997732 0.998713 Fe
0.505046 0.000303 0.491091 Fe
0.497748 0.507913 0.993068 Fe
0.250550 0.749281 0.494406 Fe
0.743433 0.258636 0.489081 Fe
0.761929 0.741489 0.007497 Fe
0.754022 0.756082 0.505970 Fe
0.992851 0.752387 0.755941 Fe
0.503147 0.243156 0.757360 Fe
0.488654 0.752235 0.255164 Fe
0.505708 0.746452 0.745285 Fe
0.254619 0.494894 0.258618 Fe
0.757296 0.998942 0.247480 Fe
0.749269 0.502057 0.254674 Fe
0.746897 0.501896 0.746442 Fe
0.003927 0.004585 0.496431 Fe
0.007389 0.494845 0.006731 Fe
0.007477 0.493693 0.498244 Fe
0.491361 0.490720 0.494957 Fe
0.260698 0.245277 0.011675 Fe
0.258871 0.254740 0.492104 Fe
0.243230 0.760034 0.997977 Fe
0.755940 0.254784 0.000264 Fe
0.993818 0.258979 0.258203 Fe
0.005328 0.256769 0.747988 Fe
0.004163 0.743213 0.256907 Fe
0.487807 0.247817 0.242112 Fe
0.252298 0.007351 0.239937 Fe
0.246255 0.999916 0.755519 Fe
0.246368 0.505201 0.751923 Fe
0.749711 0.992965 0.758872 Fe
