../1-ideal/perfect-sqs-32/POSCAR
1.0
6.933379 0.143953 0.040824
-0.038282 6.986566 -0.125498
-0.241091 0.166027 6.740081
Fe
32
direct
0.013010 0.995810 0.989640 Fe
0.464351 0.988661 0.981310 Fe
0.516991 0.970534 0.482789 Fe
0.504255 0.471198 0.021947 Fe
0.264084 0.764979 0.503728 Fe
0.773663 0.276539 0.526753 Fe
0.771381 0.760539 0.991672 Fe
0.730475 0.743239 0.486056 Fe
0.997047 0.746266 0.752709 Fe
0.491874 0.279920 0.744624 Fe
0.525284 0.762119 0.241440 Fe
0.506916 0.738956 0.717615 Fe
0.257804 0.478293 0.221894 Fe
0.746740 0.010552 0.272032 Fe
0.716277 0.488490 0.253501 Fe
0.778544 0.489928 0.719458 Fe
0.029086 0.963593 0.483715 Fe
0.005657 0.511718 0.987291 Fe
0.005180 0.533142 0.489945 Fe
0.509905 0.509223 0.481819 Fe
0.221947 0.218091 0.975529 Fe
0.238068 0.224933 0.498471 Fe
0.218599 0.742836 0.016593 Fe
0.723844 0.225794 0.024741 Fe
0.989755 0.282420 0.210964 Fe
0.020386 0.281773 0.725495 Fe
0.012550 0.713138 0.264534 Fe
0.476375 0.281260 0.235354 Fe
0.232362 0.991824 0.274452 Fe
0.286660 0.980671 0.759781 Fe
0.228752 0.465437 0.723326 Fe
0.732368 0.972359 0.769824 Fe
