../1-ideal/perfect-sqs-32/POSCAR
1.0
7.281761 -0.133255 0.046290
-0.121029 7.010138 0.026924
0.132413 -0.200895 6.926882
Fe
32
direct
0.972240 0.005920 0.976953 Fe
0.500201 0.992278 0.977008 Fe
0.480469 0.006051 0.529572 Fe
0.520225 0.508211 0.002952 Fe
0.276281 0.771566 0.475885 Fe
0.746638 0.224792 0.487824 Fe
0.738679 0.760074 0.970834 Fe
0.754668 0.751645 0.522182 Fe
0.993321 0.726186 0.757231 Fe
0.502367 0.221611 0.725497 Fe
0.509735 0.766554 0.268085 Fe
0.488349 0.735570 0.751619 Fe
0.268077 0.494243 0.262547 Fe
0.770221 0.980488 0.262934 Fe
0.774110 0.496333 0.249255 Fe
0.726113 0.486491 0.737780 Fe
0.012410 0.017509 0.482149 Fe
0.001705 0.491608 0.016347 Fe
0.004928 0.492125 0.472560 Fe
0.496089 0.478086 0.484816 Fe
0.279473 0.268516 0.984125 Fe
0.256479 0.243509 0.489241 Fe
0.249387 0.735019 0.998665 Fe
0.737932 0.245885 0.026523 Fe
0.990145 0.241027 0.223797 Fe
0.979575 0.277148 0.762182 Fe
0.971733 0.721463 0.243364 Fe
0.508835 0.232990 0.227639 Fe
0.264162 0.018560 0.247446 Fe
0.239608 0.005631 0.724807 Fe
0.256329 0.505698 0.728233 Fe
0.777377 0.010387 0.770449 Fe
