../1-ideal/perfect-sqs-32/POSCAR
1.0
7.168778 0.006035 0.016233
0.029614 7.022572 0.047183
0.063971 0.016030 6.966065
Fe
32
direct
0.992384 0.994514 0.996082 Fe
0.499789 0.008457 0.001812 Fe
0.501027 0.004443 0.499569 Fe
0.506348 0.490435 0.996007 Fe
0.255954 0.740930 0.501271 Fe
0.741025 0.251824 0.504169 Fe
0.752806 0.755148 0.000170 Fe
0.758300 0.755803 0.496343 Fe
0.006947 0.744850 0.753206 Fe
0.493575 0.239489 0.752798 Fe
0.504340 0.752637 0.243362 Fe
0.502866 0.760315 0.739930 Fe
0.256649 0.499483 0.241773 Fe
0.755879 0.008723 0.253766 Fe
0.751665 0.504431 0.257086 Fe
0.755788 0.504756 0.756537 Fe
0.993140 0.008434 0.495880 Fe
0.004499 0.507201 0.995696 Fe
0.002601 0.493500 0.508377 Fe
0.485648 0.493073 0.496120 Fe
0.248463 0.239928 0.003358 Fe
0.258291 0.257176 0.499892 Fe
0.254820 0.741399 0.993254 Fe
0.742740 0.240601 0.013998 Fe
0.006433 0.251620 0.243114 Fe
0.987224 0.243425 0.753982 Fe
0.003513 0.745961 0.249118 Fe
0.503523 0.257955 0.237376 Fe
0.249958 0.003307 0.242212 Fe
0.247965 0.999257 0.756388 Fe
0.258546 0.493289 0.745384 Fe
0.763176 0.001396 0.751871 Fe
