../1-ideal/perfect-sqs-32/POSCAR
1.0
7.254365 0.107253 0.087999
-0.246687 6.782537 0.278328
-0.399626 0.298387 7.220576
Fe
32
direct
0.021420 0.052803 0.061783 Fe
0.445069 0.986646 0.033571 Fe
0.483708 0.000971 0.471050 Fe
0.531611 0.555126 0.003316 Fe
0.302377 0.699578 0.445084 Fe
0.804486 0.215007 0.522151 Fe
0.788062 0.711375 0.013836 Fe
0.723617 0.791417 0.535692 Fe
0.014831 0.782971 0.712767 Fe
0.444966 0.215918 0.708427 Fe
0.512895 0.756620 0.301342 Fe
0.461061 0.728556 0.800216 Fe
0.304951 0.556289 0.227779 Fe
0.707407 0.024409 0.271172 Fe
0.762753 0.533383 0.286729 Fe
0.717928 0.458151 0.806195 Fe
0.014865 0.029314 0.496631 Fe
0.053624 0.458471 0.947228 Fe
0.981129 0.550636 0.556133 Fe
0.543959 0.499337 0.492065 Fe
0.281212 0.220655 0.050575 Fe
0.213432 0.217513 0.452047 Fe
0.275879 0.726337 0.962027 Fe
0.757079 0.265310 0.993757 Fe
0.938244 0.259580 0.257612 Fe
0.958255 0.270470 0.715477 Fe
0.975308 0.801427 0.276601 Fe
0.531682 0.193964 0.303272 Fe
0.299419 0.954510 0.285410 Fe
0.255946 0.032575 0.779019 Fe
0.286767 0.554178 0.782834 Fe
0.736142 0.982063 0.708723 Fe
