../1-ideal/perfect-sqs-32/POSCAR
   1.00000000000000
     7.3542702418699388   -0.0565016226612800    0.0841555809738800
    -0.2269089160903470    7.1074301785275571    0.1577194585999520
     0.0573135737646420   -0.0350144765862670    6.9206459697298213
   Fe   Fe
    16    16
Direct
  0.0305581773223906  0.9869201842097581  0.0265501219739548
  0.5242722287962920  0.9931316558566081  0.0305211922242634
  0.5305836893710136  0.9787865019920972  0.5116695143587577
  0.5140589690820647  0.5100884539223713  0.9915436068865517
  0.2874176536282675  0.7537489316948367  0.5391715375683290
  0.7417358850382882  0.2587450926341361  0.5172078466296028
  0.7412230320486088  0.7546344489028769  0.0161185799299943
  0.7358412485532710  0.7503209778022324  0.5129608435315305
  0.9709515383754095  0.7347542845616175  0.7563904032438700
  0.5162380188223779  0.2254251170813930  0.7843527263609644
  0.5161481230479410  0.7447578953807437  0.2858684447079227
  0.4986244929653196  0.7462634300945936  0.7237590525875817
  0.2565248121624677  0.5309354426307493  0.2743481935438012
  0.7334350834277714  0.9931590267332453  0.2411032605965175
  0.7378645129707806  0.5311261114288257  0.2401759342546086
  0.7733919086943146  0.4986416456356437  0.7829394770015412
  0.9850128156618609  0.9906918839004391  0.5016195265839087
  0.0149154125240045  0.4660236760275538  0.0296688278783677
  0.9947387774734437  0.5107922154011604  0.4712373424430751
  0.4996321584168797  0.4875514151080367  0.5000296176344250
  0.2622936679839754  0.2832169926499475  0.9945307998722086
  0.2742558039138956  0.2489553172856489  0.4810970606008738
  0.2663787340046326  0.7431608698523604  0.9859832822383225
  0.7280805224221183  0.2458839197193115  0.0247243225814486
  0.0226134933952125  0.2364242808415327  0.2660647838099521
  0.9761586141714531  0.2608890320383566  0.7669426824314272
  0.0300625520594622  0.7777692332877493  0.2353501451284288
  0.4789535553594959  0.2447555790382197  0.2135366237311018
  0.2805939471574064  0.9823924580132299  0.2597589546682997
  0.2264968135006100  0.0169306582082456  0.7430859715841436
  0.2179172202606736  0.5108549509400007  0.7405896784859962
  0.7296614273396926  0.9897033794868335  0.7627663378904970

  0.00000000E+00  0.00000000E+00  0.00000000E+00
  0.00000000E+00  0.00000000E+00  0.00000000E+00
  0.00000000E+00  0.00000000E+00  0.00000000E+00
  0.00000000E+00  0.00000000E+00  0.00000000E+00
  0.00000000E+00  0.00000000E+00  0.00000000E+00
  0.00000000E+00  0.00000000E+00  0.00000000E+00
  0.00000000E+00  0.00000000E+00  0.00000000E+00
  0.00000000E+00  0.00000000E+00  0.00000000E+00
  0.00000000E+00  0.00000000E+00  0.00000000E+00
  0.00000000E+00  0.00000000E+00  0.00000000E+00
  0.00000000E+00  0.00000000E+00  0.00000000E+00
  0.00000000E+00  0.00000000E+00  0.00000000E+00
  0.00000000E+00  0.00000000E+00  0.00000000E+00
  0.00000000E+00  0.00000000E+00  0.00000000E+00
  0.00000000E+00  0.00000000E+00  0.00000000E+00
  0.00000000E+00  0.00000000E+00  0.00000000E+00
  0.00000000E+00  0.00000000E+00  0.00000000E+00
  0.00000000E+00  0.00000000E+00  0.00000000E+00
  0.00000000E+00  0.00000000E+00  0.00000000E+00
  0.00000000E+00  0.00000000E+00  0.00000000E+00
  0.00000000E+00  0.00000000E+00  0.00000000E+00
  0.00000000E+00  0.00000000E+00  0.00000000E+00
  0.00000000E+00  0.00000000E+00  0.00000000E+00
  0.00000000E+00  0.00000000E+00  0.00000000E+00
  0.00000000E+00  0.00000000E+00  0.00000000E+00
  0.00000000E+00  0.00000000E+00  0.00000000E+00
  0.00000000E+00  0.00000000E+00  0.00000000E+00
  0.00000000E+00  0.00000000E+00  0.00000000E+00
  0.00000000E+00  0.00000000E+00  0.00000000E+00
  0.00000000E+00  0.00000000E+00  0.00000000E+00
  0.00000000E+00  0.00000000E+00  0.00000000E+00
  0.00000000E+00  0.00000000E+00  0.00000000E+00
