../1-ideal/perfect-sqs-32/POSCAR
1.0
7.073843 -0.064879 -0.010797
-0.002738 6.943929 -0.004805
-0.011976 0.038719 6.978880
Fe
32
direct
0.996283 0.005280 0.000248 Fe
0.493431 0.002313 0.992095 Fe
0.501725 0.006925 0.500709 Fe
0.502401 0.500552 0.005650 Fe
0.256030 0.752270 0.496915 Fe
0.749079 0.247559 0.497670 Fe
0.759619 0.745983 0.007696 Fe
0.744030 0.748886 0.508958 Fe
0.990991 0.744509 0.749996 Fe
0.505300 0.256818 0.748347 Fe
0.502442 0.749399 0.251505 Fe
0.496699 0.756122 0.741644 Fe
0.262295 0.507284 0.241571 Fe
0.754149 0.994336 0.259762 Fe
0.748725 0.491349 0.255294 Fe
0.753224 0.500826 0.743596 Fe
0.998287 0.002877 0.500246 Fe
0.994818 0.504958 0.997698 Fe
0.998741 0.509884 0.490578 Fe
0.486900 0.495177 0.506863 Fe
0.258218 0.254099 0.999257 Fe
0.259270 0.247158 0.505636 Fe
0.246053 0.759166 0.999018 Fe
0.750248 0.246535 0.999751 Fe
0.990933 0.243891 0.250619 Fe
0.002212 0.251505 0.754729 Fe
0.993504 0.754300 0.257493 Fe
0.497740 0.241778 0.254827 Fe
0.252987 0.996669 0.251409 Fe
0.248872 0.992875 0.747218 Fe
0.245685 0.508799 0.753226 Fe
0.746804 0.008049 0.751078 Fe
