../1-ideal/perfect-sqs-32/POSCAR
1.0
7.114509 -0.022674 0.018402
-0.022244 6.998072 -0.014161
0.018835 -0.013938 6.923449
Fe
32
direct
0.995243 0.998587 0.000450 Fe
0.498620 0.002304 0.998711 Fe
0.497727 0.000495 0.500722 Fe
0.497997 0.498543 0.997772 Fe
0.252562 0.750848 0.503584 Fe
0.749923 0.251637 0.498081 Fe
0.753880 0.748669 0.999428 Fe
0.752505 0.747789 0.501865 Fe
0.997429 0.749256 0.746417 Fe
0.499945 0.248304 0.751921 Fe
0.496198 0.751353 0.250569 Fe
0.497481 0.752137 0.748267 Fe
0.254638 0.501506 0.249334 Fe
0.752016 0.001384 0.252039 Fe
0.751269 0.497674 0.251315 Fe
0.752306 0.499404 0.749246 Fe
0.998087 0.998693 0.497859 Fe
0.997709 0.500616 0.000725 Fe
0.998699 0.502382 0.498853 Fe
0.495114 0.498339 0.500495 Fe
0.252452 0.247986 0.001748 Fe
0.253923 0.248881 0.499374 Fe
0.249984 0.751565 0.997941 Fe
0.752638 0.250732 0.003864 Fe
0.997317 0.252183 0.248195 Fe
0.996197 0.251186 0.750768 Fe
0.999992 0.748331 0.251861 Fe
0.497456 0.249207 0.246409 Fe
0.252470 0.999474 0.249272 Fe
0.251504 0.997609 0.751223 Fe
0.251969 0.501423 0.752196 Fe
0.754810 0.001606 0.749398 Fe
