../1-ideal/perfect-sqs-32/POSCAR
1.0
7.145889 -0.074612 -0.009720
0.023766 6.959414 -0.050489
-0.006869 -0.050730 6.935168
Fe
32
direct
0.997548 0.008628 0.000647 Fe
0.495606 0.999092 0.989871 Fe
0.498262 0.994946 0.492534 Fe
0.493927 0.492530 0.993648 Fe
0.243233 0.743831 0.505278 Fe
0.757072 0.250116 0.507527 Fe
0.762215 0.754773 0.999745 Fe
0.761027 0.746204 0.502914 Fe
0.001853 0.753544 0.750532 Fe
0.507125 0.247340 0.751377 Fe
0.493766 0.752656 0.242685 Fe
0.504096 0.749122 0.755811 Fe
0.263570 0.492038 0.256869 Fe
0.749415 0.011706 0.251110 Fe
0.746734 0.493507 0.257613 Fe
0.761415 0.496339 0.738952 Fe
0.991277 0.988925 0.507392 Fe
0.995966 0.501249 0.993944 Fe
0.002283 0.498133 0.495320 Fe
0.487129 0.493033 0.490678 Fe
0.245381 0.244578 0.008664 Fe
0.248939 0.243682 0.490457 Fe
0.254419 0.762117 0.996624 Fe
0.758454 0.257821 0.005920 Fe
0.007204 0.252140 0.255649 Fe
0.997631 0.243451 0.749676 Fe
0.003667 0.757442 0.256518 Fe
0.505654 0.252487 0.242065 Fe
0.252713 0.994466 0.243394 Fe
0.242332 0.004515 0.742099 Fe
0.242413 0.505476 0.747665 Fe
0.765167 0.003795 0.749464 Fe
