../1-ideal/perfect-sqs-32/POSCAR
1.0
6.791765 -0.017205 0.245095
-0.173140 7.281864 0.410914
-0.269243 0.181739 6.664255
Fe
32
direct
0.062192 0.956221 0.949923 Fe
0.479478 0.005818 0.932302 Fe
0.456803 0.965916 0.479497 Fe
0.461407 0.430425 0.059605 Fe
0.264867 0.710098 0.508081 Fe
0.812667 0.272414 0.523421 Fe
0.795607 0.722977 0.958884 Fe
0.701946 0.731430 0.515010 Fe
0.972035 0.746256 0.751845 Fe
0.535289 0.267988 0.708217 Fe
0.451514 0.735564 0.279592 Fe
0.459666 0.770041 0.811021 Fe
0.301256 0.548978 0.241798 Fe
0.727517 0.045315 0.234001 Fe
0.708664 0.478006 0.246204 Fe
0.719690 0.505946 0.752050 Fe
0.034408 0.048451 0.503679 Fe
0.002894 0.550333 0.018305 Fe
0.016261 0.525474 0.530469 Fe
0.471330 0.529834 0.440675 Fe
0.292229 0.279443 0.981956 Fe
0.200000 0.220825 0.490099 Fe
0.239150 0.805007 0.959756 Fe
0.776006 0.253975 0.002038 Fe
0.005118 0.281134 0.265242 Fe
0.934097 0.264167 0.751336 Fe
0.035370 0.809970 0.284160 Fe
0.511438 0.187007 0.245060 Fe
0.278152 0.039695 0.239176 Fe
0.208406 0.958922 0.723068 Fe
0.186956 0.464375 0.705339 Fe
0.722029 0.005345 0.770886 Fe
