../1-ideal/perfect-sqs-32/POSCAR
   1.00000000000000
     7.0664795824021009    0.1667202308983620   -0.0614100628846050
     0.4291084778194330    6.8598088884541326   -0.0767896842784810
     0.2318907347230660    0.0718987246217740    6.7111792043205254
   Fe   Fe
    16    16
Direct
  0.9531644707138156  0.0587511500337214  0.0257578484909686
  0.4774150408854041  0.0546268662943561  0.0015927173957806
  0.4492194804685425  0.9385725569749184  0.4434423477922138
  0.4856137373185234  0.5588641106782788  0.9887734404112152
  0.2945063758114870  0.7261206138112684  0.4641598211247313
  0.7922245487682247  0.2374602805220363  0.5635943988193475
  0.7876460124045437  0.6910357398683544  0.0124989355879492
  0.7202458512798344  0.7646129698229700  0.5319318865357303
  0.0438893799121658  0.7687696987569268  0.7988873640724776
  0.4589806873595919  0.2670070552761032  0.7209519913512494
  0.4266473979220393  0.6855594968887431  0.1870014181032786
  0.5472356601354562  0.7818775557709046  0.7041172419226953
  0.3094720711190888  0.5476299579594510  0.2739521696393226
  0.7799255736064197  0.0454762610574235  0.2289903590380078
  0.6976808428655659  0.5101322197911600  0.2135395997446849
  0.6987674928262066  0.5623078094852616  0.7663167692189816
  0.0495234675848124  0.9618851834664852  0.4671325086484259
  0.0271649188792367  0.5347344878833766  0.9749525393011709
  0.0575889227845892  0.5250482982076718  0.4779316224198311
  0.4441249375905656  0.4304911762672958  0.5373208147646693
  0.2449637259670183  0.2759660052835855  0.0442487012582831
  0.2110353669185088  0.2584167387750185  0.4939686573432027
  0.1812460810720964  0.7439362639038336  0.9685878001116635
  0.7533841852106846  0.2434030900255948  0.9758897491498928
  0.9592418788778758  0.2660907675827318  0.2448886304507525
  0.0312091859240837  0.2588737466527249  0.7444261316995835
  0.9493098991291404  0.8022279903543676  0.2016857232629050
  0.5136131961802093  0.3111117957447007  0.1968339887091446
  0.1888064658585336  0.0296106316205709  0.2800934799864407
  0.2383107359074046  0.9460879605108161  0.7808806301228941
  0.2785195283543160  0.5501330738871530  0.7987657775604902
  0.7098032053138823  0.0156541456040244  0.7873099141120719

  0.00000000E+00  0.00000000E+00  0.00000000E+00
  0.00000000E+00  0.00000000E+00  0.00000000E+00
  0.00000000E+00  0.00000000E+00  0.00000000E+00
  0.00000000E+00  0.00000000E+00  0.00000000E+00
  0.00000000E+00  0.00000000E+00  0.00000000E+00
  0.00000000E+00  0.00000000E+00  0.00000000E+00
  0.00000000E+00  0.00000000E+00  0.00000000E+00
  0.00000000E+00  0.00000000E+00  0.00000000E+00
  0.00000000E+00  0.00000000E+00  0.00000000E+00
  0.00000000E+00  0.00000000E+00  0.00000000E+00
  0.00000000E+00  0.00000000E+00  0.00000000E+00
  0.00000000E+00  0.00000000E+00  0.00000000E+00
  0.00000000E+00  0.00000000E+00  0.00000000E+00
  0.00000000E+00  0.00000000E+00  0.00000000E+00
  0.00000000E+00  0.00000000E+00  0.00000000E+00
  0.00000000E+00  0.00000000E+00  0.00000000E+00
  0.00000000E+00  0.00000000E+00  0.00000000E+00
  0.00000000E+00  0.00000000E+00  0.00000000E+00
  0.00000000E+00  0.00000000E+00  0.00000000E+00
  0.00000000E+00  0.00000000E+00  0.00000000E+00
  0.00000000E+00  0.00000000E+00  0.00000000E+00
  0.00000000E+00  0.00000000E+00  0.00000000E+00
  0.00000000E+00  0.00000000E+00  0.00000000E+00
  0.00000000E+00  0.00000000E+00  0.00000000E+00
  0.00000000E+00  0.00000000E+00  0.00000000E+00
  0.00000000E+00  0.00000000E+00  0.00000000E+00
  0.00000000E+00  0.00000000E+00  0.00000000E+00
  0.00000000E+00  0.00000000E+00  0.00000000E+00
  0.00000000E+00  0.00000000E+00  0.00000000E+00
  0.00000000E+00  0.00000000E+00  0.00000000E+00
  0.00000000E+00  0.00000000E+00  0.00000000E+00
  0.00000000E+00  0.00000000E+00  0.00000000E+00
