../1-ideal/perfect-sqs-32/POSCAR
1.0
7.253318 -0.290896 0.151182
-0.307935 7.142814 -0.146811
0.074072 0.101098 6.615260
Fe
32
direct
0.016627 0.993369 0.050542 Fe
0.469221 0.001198 0.955679 Fe
0.464030 0.969898 0.485757 Fe
0.516829 0.519677 0.000359 Fe
0.298095 0.749794 0.522257 Fe
0.703619 0.218777 0.528781 Fe
0.785626 0.771610 0.964855 Fe
0.785842 0.741991 0.474787 Fe
0.047133 0.757717 0.703376 Fe
0.526538 0.267175 0.741393 Fe
0.517141 0.724738 0.254635 Fe
0.473187 0.717227 0.748902 Fe
0.219147 0.457540 0.255756 Fe
0.793921 0.988497 0.214488 Fe
0.763483 0.498192 0.202845 Fe
0.776729 0.504406 0.707783 Fe
0.021617 0.038907 0.482340 Fe
0.018977 0.546401 0.968020 Fe
0.034103 0.490480 0.495576 Fe
0.457511 0.454470 0.506987 Fe
0.236124 0.250157 0.962770 Fe
0.233700 0.242314 0.544164 Fe
0.296373 0.747801 0.989089 Fe
0.769013 0.201710 0.048958 Fe
0.003129 0.246145 0.255344 Fe
0.975149 0.261757 0.764450 Fe
0.038032 0.741251 0.233471 Fe
0.469806 0.245033 0.267137 Fe
0.255560 0.965876 0.238101 Fe
0.297945 0.028055 0.772861 Fe
0.203154 0.463464 0.737763 Fe
0.750133 0.990148 0.790722 Fe
