../1-ideal/perfect-sqs-32/POSCAR
1.0
6.858059 0.031512 -0.004328
-0.091135 7.160138 0.011258
-0.103694 -0.207872 7.151486
Fe
32
direct
0.963030 0.960633 0.977636 Fe
0.503474 0.977946 0.006679 Fe
0.501332 0.019558 0.530185 Fe
0.481868 0.469344 0.971796 Fe
0.263064 0.749902 0.503114 Fe
0.716388 0.217554 0.492815 Fe
0.737123 0.762939 0.018202 Fe
0.737465 0.773847 0.533348 Fe
0.016013 0.764720 0.755595 Fe
0.496377 0.266844 0.746792 Fe
0.475895 0.735662 0.253722 Fe
0.475738 0.730126 0.786319 Fe
0.227545 0.516216 0.236802 Fe
0.733122 0.011639 0.222248 Fe
0.759918 0.464166 0.271648 Fe
0.774813 0.483629 0.730233 Fe
0.980906 0.993392 0.515545 Fe
0.003841 0.530769 0.011848 Fe
0.974971 0.516735 0.510706 Fe
0.504875 0.508763 0.498450 Fe
0.221064 0.221086 0.018567 Fe
0.282629 0.254704 0.489781 Fe
0.241187 0.714595 0.029728 Fe
0.730191 0.241730 0.016221 Fe
0.010104 0.257180 0.226157 Fe
0.012215 0.230168 0.742174 Fe
0.998269 0.744402 0.277155 Fe
0.522876 0.261014 0.232139 Fe
0.258119 0.976497 0.228046 Fe
0.223666 0.011241 0.728575 Fe
0.233687 0.482558 0.771372 Fe
0.741116 0.993553 0.759420 Fe
