../1-ideal/perfect-sqs-32/POSCAR
1.0
7.408331 0.176482 -0.248522
0.204092 7.330129 0.281982
-0.193336 0.259058 7.081197
Fe
32
direct
0.997944 0.002136 0.002217 Fe
0.469781 0.046153 0.996594 Fe
0.481369 0.011388 0.520622 Fe
0.519307 0.539073 0.984365 Fe
0.235663 0.755066 0.494610 Fe
0.774369 0.224526 0.503902 Fe
0.789012 0.730815 0.967657 Fe
0.752787 0.699085 0.528608 Fe
0.981936 0.765376 0.718243 Fe
0.537268 0.227310 0.774360 Fe
0.485896 0.701645 0.220030 Fe
0.459483 0.798628 0.757399 Fe
0.238573 0.538890 0.211338 Fe
0.706007 0.984701 0.278899 Fe
0.773527 0.498677 0.230642 Fe
0.766904 0.533716 0.737765 Fe
0.959252 0.949116 0.456199 Fe
0.044675 0.547357 0.964881 Fe
0.046364 0.518364 0.495959 Fe
0.455902 0.531912 0.527256 Fe
0.284109 0.244599 0.985803 Fe
0.259118 0.218223 0.508076 Fe
0.237146 0.768233 0.974152 Fe
0.720814 0.248313 0.959146 Fe
0.988284 0.236082 0.243771 Fe
0.985567 0.215888 0.791696 Fe
0.964750 0.759181 0.203883 Fe
0.454291 0.239504 0.240833 Fe
0.219091 0.031268 0.278244 Fe
0.275263 0.947770 0.730190 Fe
0.208096 0.463573 0.745106 Fe
0.720794 0.999725 0.752414 Fe
