../1-ideal/perfect-sqs-32/POSCAR
1.0
6.990973 -0.027976 0.074689
0.091390 7.057155 -0.033918
0.073114 -0.074548 6.779922
Fe
32
direct
0.000576 0.002951 0.984134 Fe
0.492532 0.009526 0.999113 Fe
0.512164 0.997147 0.505447 Fe
0.505305 0.484082 0.979360 Fe
0.271799 0.761019 0.498041 Fe
0.733325 0.269627 0.519620 Fe
0.732798 0.768663 0.984554 Fe
0.735090 0.728344 0.498056 Fe
0.011831 0.731357 0.732861 Fe
0.499810 0.249723 0.771146 Fe
0.481784 0.744720 0.230867 Fe
0.490183 0.741532 0.727057 Fe
0.256110 0.515766 0.246632 Fe
0.760780 0.988958 0.260743 Fe
0.736420 0.518603 0.251434 Fe
0.770112 0.480860 0.770796 Fe
0.995563 0.979218 0.490206 Fe
0.015636 0.501255 0.019963 Fe
0.013443 0.482027 0.498520 Fe
0.479716 0.510149 0.503144 Fe
0.234835 0.248636 0.007364 Fe
0.238393 0.235588 0.487325 Fe
0.250601 0.769255 0.994616 Fe
0.766167 0.252875 0.013552 Fe
0.015454 0.267446 0.258682 Fe
0.994655 0.238671 0.762713 Fe
0.007065 0.758758 0.239274 Fe
0.510517 0.245575 0.239446 Fe
0.237752 0.999650 0.251569 Fe
0.234559 0.993319 0.747673 Fe
0.254203 0.502976 0.744916 Fe
0.761080 0.017150 0.754576 Fe
