../1-ideal/perfect-sqs-32/POSCAR
1.0
7.202106 -0.019298 -0.104328
-0.015984 6.915700 -0.059633
-0.020673 -0.087106 6.888892
Fe
32
direct
0.013416 0.999251 0.007593 Fe
0.516283 0.010437 0.990405 Fe
0.509387 0.995950 0.494503 Fe
0.486745 0.488531 0.993192 Fe
0.240428 0.758155 0.517289 Fe
0.745646 0.247762 0.490220 Fe
0.750402 0.737820 0.997988 Fe
0.771245 0.743885 0.504797 Fe
0.995980 0.765738 0.738287 Fe
0.496220 0.261697 0.740738 Fe
0.496296 0.733274 0.251713 Fe
0.514719 0.758005 0.763465 Fe
0.270621 0.504639 0.236165 Fe
0.768861 0.985383 0.250797 Fe
0.742458 0.513519 0.263761 Fe
0.755064 0.482346 0.740578 Fe
0.986334 0.993004 0.480153 Fe
0.013898 0.504090 0.007209 Fe
0.014846 0.492906 0.496537 Fe
0.488596 0.506038 0.497665 Fe
0.271157 0.232594 0.989031 Fe
0.239853 0.266924 0.503410 Fe
0.261356 0.761575 0.008429 Fe
0.736526 0.266700 0.017476 Fe
0.979147 0.254061 0.265308 Fe
0.983719 0.257909 0.753822 Fe
0.985490 0.752107 0.246957 Fe
0.491350 0.240833 0.256831 Fe
0.242827 0.981436 0.238067 Fe
0.241295 0.014694 0.745673 Fe
0.236938 0.519699 0.735982 Fe
0.740840 0.005965 0.730734 Fe
