../1-ideal/perfect-sqs-32/POSCAR
1.0
7.106735 -0.004023 0.030402
-0.037466 6.984877 -0.015786
0.004408 -0.005363 6.938494
Fe
32
direct
0.992674 0.001112 0.998967 Fe
0.497019 0.004510 0.996445 Fe
0.500320 0.000687 0.502644 Fe
0.499212 0.500141 0.997221 Fe
0.249971 0.750490 0.501954 Fe
0.751257 0.250380 0.497654 Fe
0.754245 0.747963 0.997238 Fe
0.750236 0.749550 0.499768 Fe
0.998002 0.751740 0.746841 Fe
0.497148 0.251036 0.754943 Fe
0.496697 0.752292 0.252378 Fe
0.498156 0.753307 0.750308 Fe
0.253525 0.501430 0.248463 Fe
0.753601 0.999328 0.253159 Fe
0.750606 0.500301 0.253631 Fe
0.754858 0.497808 0.749913 Fe
0.999971 0.996635 0.499674 Fe
0.000007 0.500622 0.999523 Fe
0.999370 0.500013 0.497668 Fe
0.493863 0.498292 0.499482 Fe
0.255406 0.247812 0.004492 Fe
0.253227 0.247917 0.501594 Fe
0.251019 0.749924 0.000717 Fe
0.753676 0.250094 0.001861 Fe
0.000175 0.254538 0.250532 Fe
0.997977 0.251929 0.747782 Fe
0.999967 0.746334 0.254824 Fe
0.496139 0.251202 0.248729 Fe
0.252582 0.996913 0.247666 Fe
0.252745 0.998134 0.750859 Fe
0.250254 0.502848 0.750420 Fe
0.757638 0.002807 0.747978 Fe
