../1-ideal/perfect-sqs-32/POSCAR
1.0
7.410194 0.348128 0.264739
-0.179295 7.403606 0.022902
0.327775 -0.419178 6.862633
Fe
32
direct
0.979732 0.986881 0.032329 Fe
0.468013 0.965604 0.001252 Fe
0.532338 0.972099 0.468394 Fe
0.501167 0.534379 0.975135 Fe
0.211041 0.807748 0.561229 Fe
0.787070 0.201633 0.474170 Fe
0.746655 0.748652 0.012246 Fe
0.717822 0.794562 0.513110 Fe
0.972696 0.710707 0.760616 Fe
0.511210 0.203703 0.752786 Fe
0.507384 0.734778 0.283997 Fe
0.516264 0.715816 0.734295 Fe
0.223184 0.520185 0.281383 Fe
0.806042 0.046354 0.281362 Fe
0.752895 0.452471 0.238941 Fe
0.710625 0.522615 0.688981 Fe
0.943924 0.003848 0.444255 Fe
0.966314 0.528560 0.940205 Fe
0.026929 0.492786 0.499028 Fe
0.441106 0.524638 0.516401 Fe
0.296290 0.251337 0.996865 Fe
0.309510 0.232338 0.533582 Fe
0.210031 0.760261 0.016813 Fe
0.760396 0.239364 0.009293 Fe
0.960824 0.301674 0.198190 Fe
0.997563 0.247467 0.779450 Fe
0.033246 0.802715 0.295067 Fe
0.500694 0.248088 0.251269 Fe
0.263433 0.997340 0.242875 Fe
0.234499 0.999258 0.772511 Fe
0.244612 0.485258 0.713042 Fe
0.776066 0.048295 0.774317 Fe
