../1-ideal/perfect-sqs-32/POSCAR
1.0
7.195225 0.020087 -0.067634
0.093833 6.920022 0.005450
0.015480 -0.038534 7.004466
Fe
32
direct
0.985038 0.000800 0.987056 Fe
0.482447 0.988513 0.992444 Fe
0.491467 0.009967 0.491350 Fe
0.513515 0.487546 0.014292 Fe
0.240160 0.759537 0.516049 Fe
0.761500 0.266287 0.496338 Fe
0.737404 0.741030 0.987484 Fe
0.736470 0.759422 0.507394 Fe
0.996783 0.746018 0.746660 Fe
0.487710 0.253047 0.748844 Fe
0.507745 0.747488 0.240772 Fe
0.506380 0.765824 0.745387 Fe
0.240247 0.489156 0.232906 Fe
0.751031 0.005733 0.268163 Fe
0.748440 0.502613 0.256304 Fe
0.751946 0.500903 0.746967 Fe
0.000421 0.992202 0.506502 Fe
0.005935 0.508941 0.996016 Fe
0.985837 0.519346 0.488222 Fe
0.485692 0.494303 0.489971 Fe
0.248018 0.253270 0.010517 Fe
0.245605 0.253637 0.489338 Fe
0.243656 0.751877 0.981115 Fe
0.758190 0.235344 0.993104 Fe
0.986440 0.253290 0.256894 Fe
0.996174 0.257660 0.757572 Fe
0.992942 0.746510 0.261937 Fe
0.506512 0.264788 0.252005 Fe
0.261548 0.007835 0.235523 Fe
0.237028 0.004602 0.734275 Fe
0.262440 0.486952 0.765295 Fe
0.755237 0.999221 0.756498 Fe
