../1-ideal/perfect-sqs-32/POSCAR
1.0
7.117527 0.030825 -0.010803
-0.048631 7.057857 0.030498
-0.007609 -0.030598 6.902605
Fe
32
direct
0.991063 0.006998 0.007209 Fe
0.492392 0.995333 0.990318 Fe
0.502968 0.004271 0.496022 Fe
0.494277 0.501829 0.990056 Fe
0.251772 0.744245 0.498655 Fe
0.753031 0.242979 0.489723 Fe
0.746073 0.747845 0.003727 Fe
0.758628 0.749287 0.507661 Fe
0.988929 0.753505 0.746365 Fe
0.498065 0.250055 0.748615 Fe
0.490187 0.749953 0.246522 Fe
0.489831 0.751114 0.746332 Fe
0.245710 0.498926 0.258385 Fe
0.753143 0.001495 0.257424 Fe
0.760244 0.503950 0.246195 Fe
0.751203 0.490589 0.743518 Fe
0.990503 0.999154 0.493902 Fe
0.988878 0.491536 0.001008 Fe
0.998069 0.497447 0.508176 Fe
0.501283 0.496264 0.500710 Fe
0.247172 0.246694 0.006261 Fe
0.249145 0.243019 0.496823 Fe
0.249146 0.760441 0.991561 Fe
0.743998 0.248232 0.010235 Fe
0.998832 0.257138 0.250696 Fe
0.001940 0.257463 0.758760 Fe
0.990811 0.752027 0.245652 Fe
0.503565 0.255443 0.251077 Fe
0.257331 0.003443 0.250424 Fe
0.257529 0.991185 0.759703 Fe
0.253219 0.501046 0.749357 Fe
0.756878 0.002550 0.743236 Fe
