../1-ideal/perfect-sqs-32/POSCAR
1.0
7.082258 -0.006677 0.025344
-0.000657 7.032403 -0.068781
0.078820 -0.016007 6.878917
Fe
32
direct
0.987321 0.991288 0.994149 Fe
0.493045 0.010953 0.005235 Fe
0.502674 0.999616 0.503041 Fe
0.489718 0.490701 0.003443 Fe
0.259579 0.758760 0.494175 Fe
0.750452 0.248249 0.495928 Fe
0.753311 0.758091 0.996570 Fe
0.744571 0.741617 0.509182 Fe
0.004883 0.757368 0.744785 Fe
0.499493 0.254405 0.754436 Fe
0.495198 0.760341 0.253246 Fe
0.506756 0.754329 0.755522 Fe
0.248968 0.508729 0.257337 Fe
0.749217 0.999445 0.243334 Fe
0.745151 0.497291 0.251034 Fe
0.747043 0.506002 0.757818 Fe
0.991586 0.997947 0.492249 Fe
0.003142 0.492370 0.007556 Fe
0.998353 0.507737 0.498782 Fe
0.504218 0.490028 0.498631 Fe
0.256518 0.248814 0.995797 Fe
0.248909 0.240201 0.509062 Fe
0.252668 0.751221 0.007446 Fe
0.759381 0.251967 0.003619 Fe
0.988762 0.246887 0.244366 Fe
0.991265 0.250112 0.749235 Fe
0.001101 0.750369 0.246189 Fe
0.494985 0.258748 0.252724 Fe
0.245311 0.008917 0.250427 Fe
0.242506 0.992079 0.748595 Fe
0.244295 0.504861 0.751997 Fe
0.749985 0.006048 0.753703 Fe
