../1-ideal/perfect-sqs-32/POSCAR
   1.00000000000000
     7.3991866761678473    0.0645380353257260    0.1469049922758430
    -0.3673891703480230    7.2559339268708074   -0.0393972659946350
     0.3077125694897920   -0.0066446569174920    7.2429923563802019
   Fe   Fe
    16    16
Direct
  0.0409906152138362  0.0457321156749160  0.0268369711675120
  0.4568510287972671  0.0457331049214673  0.9848168699483182
  0.4992936049976819  0.0392824660385713  0.4841482312687049
  0.5294600630271731  0.5095831344890769  0.9554902838337540
  0.2957320144548774  0.7886275565212557  0.5158247930614692
  0.7689456386587992  0.2402099936234734  0.5279209458756355
  0.7092838510310600  0.7439855489493894  0.0101267966140881
  0.7619610543127706  0.7387457890131230  0.5200989122969446
  0.9679282700704732  0.7004311503020020  0.7626420598758372
  0.4927755024429246  0.2380696319088145  0.7804282110570924
  0.4518404127530076  0.7513837318762100  0.2113817318687765
  0.5325653467263010  0.7374291204020125  0.7979801242769469
  0.2920536995187817  0.5048412794743982  0.2049282338970855
  0.7228111912164223  0.9798386447379954  0.2417510937417475
  0.7418885482816151  0.4854438168166482  0.2016691680782543
  0.7481330047203016  0.5076360880720685  0.7356141326701788
  0.9905658750051458  0.0479255032097470  0.4902307543352862
  0.9827196999224128  0.5330328808923355  0.0503262727620495
  0.9733302491289777  0.5007477329310817  0.4764173041168789
  0.4959064525840802  0.5097704844747000  0.4805929134152294
  0.2244314899308861  0.2576232513898589  0.9852176518746774
  0.2956610339969075  0.2678454762010603  0.4650925576918752
  0.2234220274903862  0.7109140224625108  0.9624667040952843
  0.7787597354999320  0.2906677255618888  0.0076728397846892
  0.9526287051643934  0.2589283040300430  0.2056517596586289
  0.9573772041547883  0.2049698594821976  0.7299203414952373
  0.9564898923056546  0.7754092686151566  0.2052064590565905
  0.4483037918256230  0.2942975570622721  0.2044700763870253
  0.2424916309827552  0.9538392867614789  0.2895508759853627
  0.2559302601746225  0.9836634385124157  0.7560423125183959
  0.2826287935373273  0.5299476370545335  0.7934577798782527
  0.7801786066419112  0.9712134402633623  0.7249816297413076

  0.00000000E+00  0.00000000E+00  0.00000000E+00
  0.00000000E+00  0.00000000E+00  0.00000000E+00
  0.00000000E+00  0.00000000E+00  0.00000000E+00
  0.00000000E+00  0.00000000E+00  0.00000000E+00
  0.00000000E+00  0.00000000E+00  0.00000000E+00
  0.00000000E+00  0.00000000E+00  0.00000000E+00
  0.00000000E+00  0.00000000E+00  0.00000000E+00
  0.00000000E+00  0.00000000E+00  0.00000000E+00
  0.00000000E+00  0.00000000E+00  0.00000000E+00
  0.00000000E+00  0.00000000E+00  0.00000000E+00
  0.00000000E+00  0.00000000E+00  0.00000000E+00
  0.00000000E+00  0.00000000E+00  0.00000000E+00
  0.00000000E+00  0.00000000E+00  0.00000000E+00
  0.00000000E+00  0.00000000E+00  0.00000000E+00
  0.00000000E+00  0.00000000E+00  0.00000000E+00
  0.00000000E+00  0.00000000E+00  0.00000000E+00
  0.00000000E+00  0.00000000E+00  0.00000000E+00
  0.00000000E+00  0.00000000E+00  0.00000000E+00
  0.00000000E+00  0.00000000E+00  0.00000000E+00
  0.00000000E+00  0.00000000E+00  0.00000000E+00
  0.00000000E+00  0.00000000E+00  0.00000000E+00
  0.00000000E+00  0.00000000E+00  0.00000000E+00
  0.00000000E+00  0.00000000E+00  0.00000000E+00
  0.00000000E+00  0.00000000E+00  0.00000000E+00
  0.00000000E+00  0.00000000E+00  0.00000000E+00
  0.00000000E+00  0.00000000E+00  0.00000000E+00
  0.00000000E+00  0.00000000E+00  0.00000000E+00
  0.00000000E+00  0.00000000E+00  0.00000000E+00
  0.00000000E+00  0.00000000E+00  0.00000000E+00
  0.00000000E+00  0.00000000E+00  0.00000000E+00
  0.00000000E+00  0.00000000E+00  0.00000000E+00
  0.00000000E+00  0.00000000E+00  0.00000000E+00
