../1-ideal/perfect-sqs-32/POSCAR
1.0
7.372379 0.094178 -0.108977
0.104736 7.064866 0.186809
-0.253866 0.042072 6.717412
Fe
32
direct
0.978128 0.969401 0.018459 Fe
0.502866 0.012107 0.033125 Fe
0.493746 0.974888 0.480164 Fe
0.531291 0.495811 0.027566 Fe
0.233439 0.776813 0.530364 Fe
0.750877 0.276506 0.504012 Fe
0.768535 0.737551 0.968846 Fe
0.738765 0.719006 0.517308 Fe
0.022143 0.733310 0.725375 Fe
0.506112 0.268651 0.745525 Fe
0.492796 0.772968 0.213428 Fe
0.477239 0.766637 0.776981 Fe
0.245348 0.515861 0.214086 Fe
0.762974 0.020194 0.266997 Fe
0.767531 0.511704 0.272095 Fe
0.779717 0.527724 0.761714 Fe
0.978987 0.987605 0.457686 Fe
0.971603 0.499507 0.991892 Fe
0.965892 0.464704 0.502411 Fe
0.530570 0.517123 0.532571 Fe
0.270377 0.240456 0.994305 Fe
0.289289 0.268082 0.529896 Fe
0.253056 0.787792 0.958077 Fe
0.719126 0.226851 0.008627 Fe
0.036401 0.257913 0.230994 Fe
0.989176 0.259841 0.736033 Fe
0.966605 0.775280 0.286177 Fe
0.468732 0.232965 0.213692 Fe
0.238316 0.970663 0.286946 Fe
0.232849 0.008246 0.746340 Fe
0.264250 0.473951 0.786622 Fe
0.726511 0.977858 0.764799 Fe
