../1-ideal/perfect-sqs-32/POSCAR
   1.00000000000000
     7.0609859801883426   -0.0400978440233880    0.1219619913192510
    -0.0535533228545650    7.0121352848530183   -0.1073672562259820
    -0.0956975878405460    0.0101977972930760    6.8432803722892546
   Fe   Fe
    16    16
Direct
  0.0000850996534041  0.9849909415295883  0.0056449892489354
  0.4927148980733094  0.9944905647428826  0.0036818844405033
  0.4895610937038697  0.9959597033491150  0.5025971186483602
  0.5141289371452160  0.5051401771593049  0.9825641866914125
  0.2429113307958630  0.7519746656038961  0.4833386152147199
  0.7596305146365125  0.2397119399579921  0.4918106550648957
  0.7683194315481288  0.7603460188561399  0.9871639331289899
  0.7527381257399099  0.7572083077908758  0.4793267669011385
  0.0120525704131467  0.7272423666056298  0.7519453800412776
  0.5036556801434600  0.2526775839193647  0.7646777338690498
  0.5108549160255151  0.7433350455423948  0.2500581176532606
  0.5094111545124704  0.7461451214187989  0.7689631198004179
  0.2338167642151916  0.5219468541780756  0.2353967234146239
  0.7712047811896952  0.0036395072978408  0.2664566102592119
  0.7549340683246513  0.4790930346248743  0.2727460996104867
  0.7381727561154534  0.5186165894691257  0.7510233833158324
  0.9763472687884018  0.0201255237219087  0.4812552551733518
  0.0047727270163236  0.5042698568706996  0.9962329303497697
  0.9929854157220817  0.5135361103571014  0.5194994049584452
  0.4824503086301135  0.4762844540343210  0.5173664041312591
  0.2678918874888012  0.2614144805438343  0.0201473002054158
  0.2710260134761668  0.2570457647337392  0.5032217591066583
  0.2401075524857532  0.7703675805589114  0.0171143394619548
  0.7305757626455005  0.2715151206032331  0.0244843792211569
  0.9948696713012026  0.2644144943402011  0.2474641233148702
  0.0067023911485933  0.2596022460655334  0.7507525593674700
  0.9871792844887537  0.7705908610401337  0.2368848155107699
  0.4960361953111985  0.2414376415061028  0.2470050623737947
  0.2582974852837197  0.0218654374419458  0.2660374659544900
  0.2577755402199955  0.0104988535467356  0.7726755287230560
  0.2562512409624063  0.4793622797875656  0.7566122793011161
  0.7431065280102018  0.0197242839970997  0.7475532050294973

  0.00000000E+00  0.00000000E+00  0.00000000E+00
  0.00000000E+00  0.00000000E+00  0.00000000E+00
  0.00000000E+00  0.00000000E+00  0.00000000E+00
  0.00000000E+00  0.00000000E+00  0.00000000E+00
  0.00000000E+00  0.00000000E+00  0.00000000E+00
  0.00000000E+00  0.00000000E+00  0.00000000E+00
  0.00000000E+00  0.00000000E+00  0.00000000E+00
  0.00000000E+00  0.00000000E+00  0.00000000E+00
  0.00000000E+00  0.00000000E+00  0.00000000E+00
  0.00000000E+00  0.00000000E+00  0.00000000E+00
  0.00000000E+00  0.00000000E+00  0.00000000E+00
  0.00000000E+00  0.00000000E+00  0.00000000E+00
  0.00000000E+00  0.00000000E+00  0.00000000E+00
  0.00000000E+00  0.00000000E+00  0.00000000E+00
  0.00000000E+00  0.00000000E+00  0.00000000E+00
  0.00000000E+00  0.00000000E+00  0.00000000E+00
  0.00000000E+00  0.00000000E+00  0.00000000E+00
  0.00000000E+00  0.00000000E+00  0.00000000E+00
  0.00000000E+00  0.00000000E+00  0.00000000E+00
  0.00000000E+00  0.00000000E+00  0.00000000E+00
  0.00000000E+00  0.00000000E+00  0.00000000E+00
  0.00000000E+00  0.00000000E+00  0.00000000E+00
  0.00000000E+00  0.00000000E+00  0.00000000E+00
  0.00000000E+00  0.00000000E+00  0.00000000E+00
  0.00000000E+00  0.00000000E+00  0.00000000E+00
  0.00000000E+00  0.00000000E+00  0.00000000E+00
  0.00000000E+00  0.00000000E+00  0.00000000E+00
  0.00000000E+00  0.00000000E+00  0.00000000E+00
  0.00000000E+00  0.00000000E+00  0.00000000E+00
  0.00000000E+00  0.00000000E+00  0.00000000E+00
  0.00000000E+00  0.00000000E+00  0.00000000E+00
  0.00000000E+00  0.00000000E+00  0.00000000E+00
