../1-ideal/perfect-sqs-32/POSCAR
1.0
7.193550 0.033863 -0.025218
-0.063482 7.077779 -0.082520
0.102206 -0.126945 6.942450
Fe
32
direct
0.987822 0.992840 0.986337 Fe
0.506087 0.995200 0.985144 Fe
0.493737 0.010045 0.505884 Fe
0.497053 0.487870 0.994407 Fe
0.261998 0.746953 0.504498 Fe
0.738112 0.264405 0.505771 Fe
0.764918 0.733782 0.989150 Fe
0.762383 0.750936 0.500489 Fe
0.994540 0.746362 0.741960 Fe
0.509960 0.244001 0.757416 Fe
0.491333 0.749631 0.248664 Fe
0.506798 0.751685 0.734449 Fe
0.251430 0.488483 0.260960 Fe
0.767198 0.016792 0.246376 Fe
0.751938 0.494596 0.251874 Fe
0.748800 0.502364 0.752793 Fe
0.989567 0.986944 0.500767 Fe
0.003882 0.502182 0.003251 Fe
0.986917 0.510255 0.493298 Fe
0.492888 0.489737 0.504112 Fe
0.237182 0.250608 0.985873 Fe
0.241646 0.249891 0.506184 Fe
0.264269 0.740566 0.985590 Fe
0.763501 0.263448 0.989427 Fe
0.007947 0.267578 0.256422 Fe
0.005394 0.259561 0.762449 Fe
0.993604 0.739161 0.244070 Fe
0.485738 0.257842 0.246234 Fe
0.255922 0.989699 0.260420 Fe
0.245799 0.981337 0.739337 Fe
0.238773 0.500094 0.755198 Fe
0.755961 0.990568 0.743227 Fe
