../1-ideal/perfect-sqs-32/POSCAR
   1.00000000000000
     7.1656715561066564   -0.3313213006647030   -0.0679850706633970
    -0.3832304080760910    6.8317905792749203    0.2110270603765460
    -0.1748261746931900    0.1196960819392860    6.8692271836998033
   Fe   Fe
    16    16
Direct
  0.9875742799394445  0.9702337583790808  0.9944175500927557
  0.4649632417587881  0.0476976991629101  0.9783305436783891
  0.5171156994186532  0.0058126434356041  0.5201462245440425
  0.5455848060922932  0.5487643449586415  0.0509475845874334
  0.2852907491079577  0.7433477922354754  0.4835938268698428
  0.7998792104354777  0.2055397917815540  0.5464946134307880
  0.7386032626464356  0.7532488605050105  0.9807834087074312
  0.8020536838699925  0.7031546914054019  0.5220300955009023
  0.0299945967508606  0.7983866695549438  0.7005675048849227
  0.5513165125523827  0.2076506933362197  0.7860080436465466
  0.4753021443991230  0.7675882146584669  0.2375631395834787
  0.4995627304008750  0.7784542920935209  0.8009831291650258
  0.2624254964565296  0.4695403996832184  0.2998324351836459
  0.7591236904665877  0.9987428475788107  0.2286301382930347
  0.7247192394007698  0.4568159391543531  0.2220905556065702
  0.7740925775527572  0.5098175181385827  0.7788360482750960
  0.0502409222009064  0.0023112247840231  0.4926587316855873
  0.0112713799632971  0.5242945930035035  0.9772890212808107
  0.0138920806381435  0.4971590555877228  0.5209927696521817
  0.4463521450217769  0.4824280580499760  0.4924970555152584
  0.2885586708434857  0.2388584365744890  0.0314330521969737
  0.3062365296161289  0.2071889042305273  0.5097887102349574
  0.2340081318345852  0.7734152930341054  0.9680342840669240
  0.7652782822290973  0.2102609192301159  0.9755508664163415
  0.9892867098615383  0.2227740237339049  0.2620238060838460
  0.9748916500684288  0.2310403586930008  0.7325048096842082
  0.0474084957748033  0.7519174696045923  0.2652822063902249
  0.5400237183457506  0.2230176823637606  0.2643156265709692
  0.2510760560318843  0.9828476964363730  0.2775224291570382
  0.2487653383282975  0.9861882911109561  0.7988826334080201
  0.2334056944879848  0.5014513997544654  0.8008682991719098
  0.7408369998392317  0.9984250371163625  0.6975519909848771

  0.00000000E+00  0.00000000E+00  0.00000000E+00
  0.00000000E+00  0.00000000E+00  0.00000000E+00
  0.00000000E+00  0.00000000E+00  0.00000000E+00
  0.00000000E+00  0.00000000E+00  0.00000000E+00
  0.00000000E+00  0.00000000E+00  0.00000000E+00
  0.00000000E+00  0.00000000E+00  0.00000000E+00
  0.00000000E+00  0.00000000E+00  0.00000000E+00
  0.00000000E+00  0.00000000E+00  0.00000000E+00
  0.00000000E+00  0.00000000E+00  0.00000000E+00
  0.00000000E+00  0.00000000E+00  0.00000000E+00
  0.00000000E+00  0.00000000E+00  0.00000000E+00
  0.00000000E+00  0.00000000E+00  0.00000000E+00
  0.00000000E+00  0.00000000E+00  0.00000000E+00
  0.00000000E+00  0.00000000E+00  0.00000000E+00
  0.00000000E+00  0.00000000E+00  0.00000000E+00
  0.00000000E+00  0.00000000E+00  0.00000000E+00
  0.00000000E+00  0.00000000E+00  0.00000000E+00
  0.00000000E+00  0.00000000E+00  0.00000000E+00
  0.00000000E+00  0.00000000E+00  0.00000000E+00
  0.00000000E+00  0.00000000E+00  0.00000000E+00
  0.00000000E+00  0.00000000E+00  0.00000000E+00
  0.00000000E+00  0.00000000E+00  0.00000000E+00
  0.00000000E+00  0.00000000E+00  0.00000000E+00
  0.00000000E+00  0.00000000E+00  0.00000000E+00
  0.00000000E+00  0.00000000E+00  0.00000000E+00
  0.00000000E+00  0.00000000E+00  0.00000000E+00
  0.00000000E+00  0.00000000E+00  0.00000000E+00
  0.00000000E+00  0.00000000E+00  0.00000000E+00
  0.00000000E+00  0.00000000E+00  0.00000000E+00
  0.00000000E+00  0.00000000E+00  0.00000000E+00
  0.00000000E+00  0.00000000E+00  0.00000000E+00
  0.00000000E+00  0.00000000E+00  0.00000000E+00
